 vasp.6.4.2 20Jul23 (build Jun 09 2024 21:22:44) complex                        
  
 executed on             LinuxIFC date 2024.08.29  14:29:14
 running   32 mpi-ranks, with    1 threads/rank, on    1 nodes
 distrk:  each k-point on   32 cores,    1 groups
 distr:  one band on NCORE=   1 cores,   32 groups


--------------------------------------------------------------------------------------------------------


 INCAR:
   SYSTEM = Generated By Q_robot
   PREC = N
   ISTART = 1
   GGA = PE
   ISPIN = 1
   ENCUT = 500
   NELM = 400
   EDIFF = 1E-05
   LREAL = AUTO
   ALGO = F
   EDIFFG = -0.03
   NSW = 100
   IBRION = 5
   NFREE = 2
   POTIM = 0.015
   ISIF = 2
   ISYM = 2
   LVHAR = F
   LWAVE = F
   LCHARG = F
   LAECHG = F
   LORBIT = 11
   NWRITE = 0
   LSCALAPACK = F
   ISMEAR = 0
   SIGMA = 0.01

 POTCAR:    PAW_PBE Ru 04Feb2005                  
 POTCAR:    PAW_PBE N 08Apr2002                   
 POTCAR:    PAW_PBE H 15Jun2001                   
 POTCAR:    PAW_PBE Ru 04Feb2005                  
  local pseudopotential read in
  partial core-charges read in
  partial kinetic energy density read in
  atomic valenz-charges read in
  non local Contribution for L=           2  read in
    real space projection operators read in
  non local Contribution for L=           2  read in
    real space projection operators read in
  non local Contribution for L=           0  read in
    real space projection operators read in
  non local Contribution for L=           0  read in
    real space projection operators read in
  non local Contribution for L=           1  read in
    real space projection operators read in
  non local Contribution for L=           1  read in
    real space projection operators read in
    PAW grid and wavefunctions read in
 
   number of l-projection  operators is LMAX  =           6
   number of lm-projection operators is LMMAX =          18
 
 POTCAR:    PAW_PBE N 08Apr2002                   
  local pseudopotential read in
  partial core-charges read in
  partial kinetic energy density read in
  atomic valenz-charges read in
  non local Contribution for L=           0  read in
    real space projection operators read in
  non local Contribution for L=           0  read in
    real space projection operators read in
  non local Contribution for L=           1  read in
    real space projection operators read in
  non local Contribution for L=           1  read in
    real space projection operators read in
    PAW grid and wavefunctions read in
 
   number of l-projection  operators is LMAX  =           4
   number of lm-projection operators is LMMAX =           8
 
 POTCAR:    PAW_PBE H 15Jun2001                   
  local pseudopotential read in
  atomic valenz-charges read in
  non local Contribution for L=           0  read in
    real space projection operators read in
  non local Contribution for L=           0  read in
    real space projection operators read in
  non local Contribution for L=           1  read in
    real space projection operators read in
    PAW grid and wavefunctions read in
 
   number of l-projection  operators is LMAX  =           3
   number of lm-projection operators is LMMAX =           5
 
 Optimization of the real space projectors (new method)

 maximal supplied QI-value         = 13.98
 optimisation between [QCUT,QGAM] = [ 11.33, 22.79] = [ 35.93,145.49] Ry 
 Optimized for a Real-space Cutoff    1.52 Angstroem

   l    n(q)    QCUT    max X(q) W(low)/X(q) W(high)/X(q)  e(spline) 
   2      9    11.327    61.733    0.26E-03    0.14E-03    0.16E-06
   2      9    11.327    59.886    0.26E-03    0.14E-03    0.17E-06
   0     10    11.327    23.358    0.19E-03    0.14E-04    0.46E-06
   0     10    11.327    11.320    0.15E-03    0.11E-04    0.37E-06
   1     10    11.327    14.765    0.49E-04    0.26E-03    0.24E-06
   1     10    11.327     8.283    0.37E-04    0.20E-03    0.18E-06
 Optimization of the real space projectors (new method)

 maximal supplied QI-value         = 25.13
 optimisation between [QCUT,QGAM] = [ 11.31, 22.87] = [ 35.82,146.48] Ry 
 Optimized for a Real-space Cutoff    1.27 Angstroem

   l    n(q)    QCUT    max X(q) W(low)/X(q) W(high)/X(q)  e(spline) 
   0      9    11.310    79.467    0.75E-04    0.16E-03    0.36E-06
   0      9    11.310    66.151    0.74E-04    0.16E-03    0.36E-06
   1      8    11.310    17.416    0.35E-03    0.12E-03    0.95E-06
   1      8    11.310    12.382    0.37E-03    0.13E-03    0.98E-06
 Optimization of the real space projectors (new method)

 maximal supplied QI-value         = 34.20
 optimisation between [QCUT,QGAM] = [ 11.29, 22.57] = [ 35.68,142.71] Ry 
 Optimized for a Real-space Cutoff    1.16 Angstroem

   l    n(q)    QCUT    max X(q) W(low)/X(q) W(high)/X(q)  e(spline) 
   0      8    11.287    19.460    0.40E-03    0.73E-03    0.16E-06
   0      8    11.287    12.209    0.38E-03    0.70E-03    0.15E-06
   1      7    11.287     4.655    0.22E-03    0.25E-04    0.22E-06
  PAW_PBE Ru 04Feb2005                  :
 energy of atom  1       EATOM= -454.8837
 kinetic energy error for atom=    0.0015 (will be added to EATOM!!)
  PAW_PBE N 08Apr2002                   :
 energy of atom  2       EATOM= -264.5486
 kinetic energy error for atom=    0.0138 (will be added to EATOM!!)
  PAW_PBE H 15Jun2001                   :
 energy of atom  3       EATOM=  -12.4884
 kinetic energy error for atom=    0.0020 (will be added to EATOM!!)
 
 
 POSCAR: Ru  N  H
  positions in cartesian coordinates
  No initial velocities read in
 exchange correlation table for  LEXCH =        8
   RHO(1)=    0.500       N(1)  =     2000
   RHO(2)=  100.500       N(2)  =     4000
 


--------------------------------------------------------------------------------------------------------


 ion  position               nearest neighbor table
   1  0.083  0.167  0.000-  22 2.67  19 2.67  17 2.67  11 2.73   2 2.73   4 2.73  16 2.73   3 2.73
                             6 2.73
   2  0.333  0.167  0.000-  17 2.67  20 2.67  18 2.67  12 2.73  11 2.73   1 2.73   7 2.73   4 2.73
                             5 2.73
   3  0.083  0.417  0.000-  24 2.67  25 2.67  19 2.67   4 2.73   1 2.73   8 2.73  10 2.73   9 2.73
                             6 2.73
   4  0.333  0.417  0.000-  26 2.67  19 2.67  20 2.67   7 2.73   3 2.73   1 2.73   2 2.73  13 2.73
                            10 2.73
   5  0.583  0.167  0.000-  23 2.67  18 2.67  21 2.67   6 2.73  15 2.73   8 2.73  12 2.73   2 2.73
                             7 2.73
   6  0.833  0.167  0.000-  21 2.67  24 2.67  22 2.67   5 2.73  15 2.73  16 2.73   8 2.73   3 2.73
                             1 2.73
   7  0.583  0.417  0.000-  20 2.67  29 2.67  23 2.67   4 2.73   2 2.73   8 2.73  14 2.73  13 2.73
                             5 2.73
   8  0.833  0.417  0.000-  30 2.67  23 2.67  24 2.67   6 2.73   5 2.73   7 2.73   3 2.73   9 2.73
                            14 2.73
   9  0.083  0.667  0.000-  27 2.67  30 2.67  25 2.67  12 2.73  10 2.73  11 2.73   3 2.73   8 2.73
                            14 2.73
  10  0.333  0.667  0.000-  28 2.67  25 2.67  26 2.67  15 2.73   9 2.73  13 2.73  12 2.73   3 2.73
                             4 2.73
  11  0.083  0.917  0.000-  32 2.67  17 2.67  27 2.67   1 2.73   2 2.73  12 2.73   9 2.73  14 2.73
                            16 2.73
  12  0.333  0.917  0.000-  27 2.67  18 2.67  28 2.67   2 2.73   9 2.73   5 2.73  15 2.73  11 2.73
                            10 2.73
  13  0.583  0.667  0.000-  31 2.67  26 2.67  29 2.67  14 2.73  16 2.73  10 2.73  15 2.73   7 2.73
                             4 2.73
  14  0.833  0.667  0.000-  29 2.67  32 2.67  30 2.67  13 2.73  16 2.73   7 2.73  11 2.73   8 2.73
                             9 2.73
  15  0.583  0.917  0.000-  28 2.67  21 2.67  31 2.67   6 2.73   5 2.73  16 2.73  10 2.73  12 2.73
                            13 2.73
  16  0.833  0.917  0.000-  31 2.67  22 2.67  32 2.67  13 2.73  15 2.73   6 2.73  14 2.73   1 2.73
                            11 2.73
  17  0.167  0.083  0.123-  34 2.64  43 2.65  33 2.65  11 2.67   2 2.67   1 2.67  32 2.73  22 2.73
                            18 2.73  27 2.73  19 2.73  20 2.73
  18  0.417  0.083  0.123-  34 2.64  44 2.65  37 2.65  12 2.67   5 2.67   2 2.67  27 2.73  17 2.73
                            21 2.73  28 2.73  20 2.73  23 2.73
  19  0.167  0.333  0.123-  35 2.65  33 2.65  36 2.65   4 2.67   1 2.67   3 2.67  24 2.73  25 2.73
                            26 2.73  22 2.73  20 2.73  17 2.73
  20  0.417  0.333  0.123-  39 2.66  36 2.66  34 2.66   7 2.67   2 2.67   4 2.67  26 2.73  23 2.73
                            29 2.73  18 2.73  19 2.73  17 2.73
  21  0.667  0.083  0.123-  38 2.65  37 2.65  47 2.65   6 2.67  15 2.67   5 2.67  28 2.73  18 2.73
                            31 2.73  23 2.73  22 2.73  24 2.73
  22  0.917  0.083  0.123-  38 2.65  33 2.65  48 2.65  16 2.67   1 2.67   6 2.67  17 2.73  31 2.73
                            24 2.73  19 2.73  32 2.73  21 2.73
  23  0.667  0.333  0.123-  40 2.65  37 2.65  39 2.65   8 2.67   5 2.67   7 2.67  29 2.73  20 2.73
                            30 2.73  18 2.73  21 2.73  24 2.73
  24  0.917  0.333  0.123-  38 2.65  35 2.65  40 2.65   3 2.67   6 2.67   8 2.67  19 2.73  25 2.73
                            30 2.73  22 2.73  21 2.73  23 2.73
  25  0.167  0.583  0.123-  42 2.64  35 2.65  41 2.65   3 2.67  10 2.67   9 2.67  24 2.73  30 2.73
                            19 2.73  26 2.73  27 2.73  28 2.73
  26  0.417  0.583  0.123-  45 2.64  42 2.65  36 2.65   4 2.67  13 2.67  10 2.67  20 2.73  19 2.73
                            25 2.73  28 2.73  29 2.73  31 2.73
  27  0.167  0.833  0.123-  44 2.65  43 2.65  41 2.66  12 2.67   9 2.67  11 2.67  32 2.73  18 2.73
                            17 2.73  28 2.73  25 2.73  30 2.73
  28  0.417  0.833  0.123-  44 2.65  47 2.65  42 2.65  15 2.67  10 2.67  12 2.67  21 2.73  31 2.73
                            27 2.73  18 2.73  26 2.73  25 2.73
  29  0.667  0.583  0.123-  45 2.64  46 2.65  39 2.65  14 2.67   7 2.67  13 2.67  23 2.73  20 2.73
                            30 2.73  26 2.73  31 2.73  32 2.73
  30  0.917  0.583  0.123-  46 2.64  40 2.65  41 2.65   8 2.67   9 2.67  14 2.67  25 2.73  23 2.73
                            24 2.73  29 2.73  32 2.73  27 2.73
  31  0.667  0.833  0.123-  47 2.65  48 2.65  45 2.65  16 2.67  13 2.67  15 2.67  22 2.73  28 2.73
                            21 2.73  29 2.73  26 2.73  32 2.73
  32  0.917  0.833  0.123-  43 2.65  48 2.65  46 2.65  11 2.67  14 2.67  16 2.67  17 2.73  27 2.73
                            22 2.73  30 2.73  31 2.73  29 2.73
  33  0.084  0.167  0.245-  51 2.60  49 2.60  54 2.60  19 2.65  17 2.65  22 2.65  43 2.72  34 2.72
                            36 2.72  35 2.72  38 2.73  48 2.73
  34  0.332  0.165  0.245-  52 2.55  50 2.60  49 2.60  17 2.64  18 2.64  20 2.66  44 2.71  43 2.71
                            33 2.72  37 2.72  36 2.75  39 2.75
  35  0.084  0.417  0.245-  57 2.60  56 2.61  51 2.61  19 2.65  25 2.65  24 2.65  36 2.71  42 2.72
                            41 2.72  38 2.72  33 2.72  40 2.73
  36  0.333  0.417  0.246-  52 2.60  51 2.61  26 2.65  19 2.65  58 2.65  20 2.66  35 2.71  42 2.71
                            45 2.72  33 2.72  39 2.75  34 2.75
  37  0.583  0.167  0.245-  55 2.60  50 2.60  53 2.60  23 2.65  18 2.65  21 2.65  44 2.72  34 2.72
                            39 2.72  40 2.72  38 2.73  47 2.73
  38  0.834  0.167  0.245-  54 2.60  53 2.60  56 2.61  24 2.65  21 2.65  22 2.65  40 2.72  35 2.72
                            33 2.73  37 2.73  47 2.74  48 2.74
  39  0.585  0.417  0.246-  52 2.60  55 2.61  29 2.65  23 2.65  61 2.65  20 2.66  46 2.71  40 2.71
                            45 2.72  37 2.72  36 2.75  34 2.75
  40  0.833  0.417  0.245-  62 2.60  56 2.61  55 2.61  23 2.65  30 2.65  24 2.65  39 2.71  46 2.72
                            41 2.72  38 2.72  37 2.72  35 2.73
  41  0.083  0.666  0.246-  59 2.59  57 2.60  62 2.60  30 2.65  25 2.65  27 2.66  42 2.72  46 2.72
                            40 2.72  35 2.72  43 2.74  44 2.74
  42  0.332  0.666  0.245-  57 2.59  60 2.61  25 2.64  26 2.65  28 2.65  58 2.69  36 2.71  35 2.72
                            41 2.72  44 2.73  47 2.73  45 2.73
  43  0.083  0.917  0.245-  64 2.59  49 2.60  59 2.61  17 2.65  32 2.65  27 2.65  34 2.71  48 2.72
                            33 2.72  46 2.73  44 2.73  41 2.74
  44  0.334  0.917  0.245-  60 2.59  50 2.60  59 2.61  18 2.65  28 2.65  27 2.65  34 2.71  47 2.72
                            37 2.72  42 2.73  43 2.73  41 2.74
  45  0.583  0.666  0.245-  63 2.64  26 2.64  29 2.64  58 2.65  61 2.65  31 2.65  39 2.72  36 2.72
                            47 2.73  48 2.73  46 2.73  42 2.73
  46  0.834  0.666  0.245-  62 2.59  64 2.61  30 2.64  29 2.65  32 2.65  61 2.69  39 2.71  40 2.72
                            41 2.72  43 2.73  48 2.73  45 2.73
  47  0.583  0.916  0.245-  63 2.57  60 2.60  53 2.61  28 2.65  31 2.65  21 2.65  44 2.72  48 2.73
                            45 2.73  42 2.73  37 2.73  38 2.74
  48  0.833  0.916  0.245-  63 2.57  64 2.60  54 2.61  32 2.65  31 2.65  22 2.65  43 2.72  47 2.73
                            45 2.73  46 2.73  33 2.73  38 2.74
  49  0.166  0.083  0.364-  43 2.60  33 2.60  34 2.60  52 2.68  64 2.71  54 2.72  51 2.72  59 2.74
                            50 2.74
  50  0.417  0.083  0.364-  44 2.60  37 2.60  34 2.60  52 2.68  60 2.71  53 2.72  55 2.72  59 2.74
                            49 2.74
  51  0.165  0.332  0.365-  33 2.60  35 2.61  36 2.61  54 2.71  56 2.72  49 2.72  57 2.73  52 2.73
                            58 2.75
  52  0.413  0.327  0.362-  34 2.55  36 2.60  39 2.60  50 2.68  49 2.68  55 2.73  51 2.73  61 2.76
                            58 2.76
  53  0.667  0.084  0.364-  37 2.60  38 2.60  47 2.61  63 2.67  55 2.71  50 2.72  56 2.73  54 2.73
                            60 2.73
  54  0.917  0.084  0.364-  33 2.60  38 2.60  48 2.61  63 2.67  51 2.71  49 2.72  56 2.73  53 2.73
                            64 2.73
  55  0.667  0.332  0.365-  37 2.60  40 2.61  39 2.61  53 2.71  56 2.72  50 2.72  62 2.73  52 2.73
                            61 2.75
  56  0.917  0.334  0.364-  40 2.61  35 2.61  38 2.61  51 2.72  55 2.72  54 2.73  53 2.73  57 2.73
                            62 2.73
  57  0.168  0.583  0.364-  42 2.59  41 2.60  35 2.60  59 2.72  60 2.72  51 2.73  56 2.73  58 2.75
                            62 2.75
  58  0.419  0.582  0.368-  65 2.11  45 2.65  36 2.65  61 2.66  42 2.69  57 2.75  51 2.75  60 2.76
                            52 2.76  63 2.78
  59  0.166  0.832  0.364-  41 2.59  44 2.61  43 2.61  57 2.72  62 2.72  60 2.72  64 2.72  50 2.74
                            49 2.74
  60  0.417  0.834  0.364-  44 2.59  47 2.60  42 2.61  50 2.71  59 2.72  57 2.72  53 2.73  63 2.73
                            58 2.76
  61  0.663  0.582  0.368-  65 2.11  45 2.65  39 2.65  58 2.66  46 2.69  62 2.75  55 2.75  64 2.76
                            52 2.76  63 2.78
  62  0.916  0.583  0.364-  46 2.59  41 2.60  40 2.60  59 2.72  64 2.72  55 2.73  56 2.73  61 2.75
                            57 2.75
  63  0.670  0.840  0.363-  47 2.57  48 2.57  45 2.64  54 2.67  53 2.67  64 2.73  60 2.73  61 2.78
                            58 2.78
  64  0.917  0.834  0.364-  43 2.59  48 2.60  46 2.61  49 2.71  59 2.72  62 2.72  54 2.73  63 2.73
                            61 2.76
  65  0.540  0.580  0.462-  67 1.02  66 1.02  58 2.11  61 2.11
  66  0.584  0.668  0.496-  65 1.02
  67  0.496  0.493  0.497-  65 1.02
 
  LATTYP: Found a hexagonal cell.
 ALAT       =    10.9034004211
 C/A-ratio  =     1.6006841223
  
  Lattice vectors:
  
 A1 = (  10.9034004211,   0.0000000000,   0.0000000000)
 A2 = (  -5.4517002106,   9.4426217523,   0.0000000000)
 A3 = (   0.0000000000,   0.0000000000,  17.4528999329)


Analysis of symmetry for initial positions (statically):
=====================================================================
 Subroutine PRICEL returns:
 Original cell was already a primitive cell.
 

 Routine SETGRP: Setting up the symmetry group for a 
 hexagonal supercell.


 Subroutine GETGRP returns: Found  1 space group operations
 (whereof  1 operations were pure point group operations)
 out of a pool of 24 trial point group operations.


The static configuration has the point symmetry C_1 .


Analysis of symmetry for dynamics (positions and initial velocities):
=====================================================================
 Subroutine PRICEL returns:
 Original cell was already a primitive cell.
 

 Routine SETGRP: Setting up the symmetry group for a 
 hexagonal supercell.


 Subroutine GETGRP returns: Found  1 space group operations
 (whereof  1 operations were pure point group operations)
 out of a pool of 24 trial point group operations.


The dynamic configuration has the point symmetry C_1 .


Analysis of constrained symmetry for selective dynamics:
=====================================================================
 Subroutine PRICEL returns:
 Original cell was already a primitive cell.
 

 Routine SETGRP: Setting up the symmetry group for a 
 hexagonal supercell.


 Subroutine GETGRP returns: Found  1 space group operations
 (whereof  1 operations were pure point group operations)
 out of a pool of 24 trial point group operations.


The constrained configuration has the point symmetry C_1 .


 Subroutine INISYM returns: Found  1 space group operations
 (whereof  1 operations are pure point group operations),
 and found     1 'primitive' translations


----------------------------------------------------------------------------------------

                                     Primitive cell                                     

  volume of cell :    1796.8927

  direct lattice vectors                    reciprocal lattice vectors
    10.903400421  0.000000000  0.000000000     0.091714508  0.052951396  0.000000000
    -5.451700211  9.442621752  0.000000000     0.000000000  0.105902791  0.000000000
     0.000000000  0.000000000 17.452899933     0.000000000  0.000000000  0.057297068

  length of vectors
    10.903400421 10.903400421 17.452899933     0.105902791  0.105902791  0.057297068

  position of ions in fractional coordinates (direct lattice)
     0.083330003  0.166669999  0.000000000
     0.333329992  0.166669999  0.000000000
     0.083329998  0.416670010  0.000000000
     0.333329998  0.416670010  0.000000000
     0.583330014  0.166669999  0.000000000
     0.833329926  0.166669999  0.000000000
     0.583329976  0.416670010  0.000000000
     0.833329976  0.416670010  0.000000000
     0.083330016  0.666670047  0.000000000
     0.333330016  0.666670047  0.000000000
     0.083329987  0.916670033  0.000000000
     0.333329987  0.916670033  0.000000000
     0.583330016  0.666670047  0.000000000
     0.833329950  0.666670047  0.000000000
     0.583329987  0.916670033  0.000000000
     0.833329944  0.916670033  0.000000000
     0.166669997  0.083330000  0.123239998
     0.416669986  0.083330000  0.123239998
     0.166670009  0.333330024  0.123239998
     0.416670019  0.333330024  0.123239998
     0.666669986  0.083330000  0.123239998
     0.916670029  0.083330000  0.123239998
     0.666669998  0.333330024  0.123239998
     0.916670085  0.333330024  0.123239998
     0.166669989  0.583329985  0.123239998
     0.416670000  0.583329985  0.123239998
     0.166670040  0.833330022  0.123239998
     0.416670040  0.833330022  0.123239998
     0.666670022  0.583329985  0.123239998
     0.916670022  0.583329985  0.123239998
     0.666670040  0.833330022  0.123239998
     0.916670084  0.833330022  0.123239998
     0.083602939  0.166832307  0.245301764
     0.332358425  0.164716953  0.245407291
     0.083573687  0.416726547  0.245270573
     0.332791106  0.417425706  0.245563252
     0.583230414  0.166832796  0.245301111
     0.833549562  0.167098061  0.245245564
     0.584633709  0.417427250  0.245564252
     0.833158233  0.416727689  0.245271602
     0.082995710  0.665993812  0.245765809
     0.332284599  0.666051266  0.245075814
     0.083196121  0.917019212  0.245348054
     0.333817992  0.917025994  0.245346239
     0.582851270  0.665704399  0.245214978
     0.833751368  0.666039549  0.245080002
     0.582924154  0.916029704  0.245466467
     0.833117895  0.916035176  0.245465772
     0.165502865  0.082510958  0.364097258
     0.417004027  0.082515664  0.364099056
     0.165286265  0.331999089  0.364522889
     0.413298061  0.326602895  0.362409711
     0.666952483  0.083876575  0.363955312
     0.916922756  0.083880166  0.363955274
     0.666706134  0.332002629  0.364525407
     0.916916198  0.333833058  0.364397313
     0.167856035  0.583484196  0.364103696
     0.418941282  0.582326380  0.368428900
     0.165902298  0.831803319  0.364203209
     0.416642403  0.834068252  0.363931230
     0.663340852  0.582324367  0.368453640
     0.915616547  0.583484951  0.364106643
     0.670104150  0.840206084  0.363427999
     0.917416572  0.834060365  0.363934014
     0.539951096  0.580037791  0.462180671
     0.583870349  0.667941869  0.496422214
     0.496298518  0.492899079  0.496926881

  ion indices of the primitive-cell ions
   primitive index   ion index
                 1           1
                 2           2
                 3           3
                 4           4
                 5           5
                 6           6
                 7           7
                 8           8
                 9           9
                10          10
                11          11
                12          12
                13          13
                14          14
                15          15
                16          16
                17          17
                18          18
                19          19
                20          20
                21          21
                22          22
                23          23
                24          24
                25          25
                26          26
                27          27
                28          28
                29          29
                30          30
                31          31
                32          32
                33          33
                34          34
                35          35
                36          36
                37          37
                38          38
                39          39
                40          40
                41          41
                42          42
                43          43
                44          44
                45          45
                46          46
                47          47
                48          48
                49          49
                50          50
                51          51
                52          52
                53          53
                54          54
                55          55
                56          56
                57          57
                58          58
                59          59
                60          60
                61          61
                62          62
                63          63
                64          64
                65          65
                66          66
                67          67

----------------------------------------------------------------------------------------

 
 
 KPOINTS: Kpoints                                 

Automatic generation of k-mesh.
 Grid dimensions read from file:
 generate k-points for:    1    1    1

 Generating k-lattice:

  Cartesian coordinates                     Fractional coordinates (reciprocal lattice)
     0.091714508  0.052951396  0.000000000     1.000000000  0.000000000  0.000000000
     0.000000000  0.105902791  0.000000000     0.000000000  1.000000000  0.000000000
     0.000000000  0.000000000  0.057297068     0.000000000  0.000000000  1.000000000

  Length of vectors
     0.105902791  0.105902791  0.057297068

  Shift w.r.t. Gamma in fractional coordinates (k-lattice)
     0.000000000  0.000000000  0.000000000

 
 Subroutine IBZKPT returns following result:
 ===========================================
 
 Found      1 irreducible k-points:
 
 Following reciprocal coordinates:
            Coordinates               Weight
  0.000000  0.000000  0.000000      1.000000
 
 Following cartesian coordinates:
            Coordinates               Weight
  0.000000  0.000000  0.000000      1.000000
 
 
 Subroutine IBZKPT_HF returns following result:
 ==============================================
 
 Found      1 k-points in 1st BZ
 the following      1 k-points will be used (e.g. in the exchange kernel)
 Following reciprocal coordinates:   # in IRBZ
  0.000000  0.000000  0.000000    1.00000000   1 t-inv F


--------------------------------------------------------------------------------------------------------




 Dimension of arrays:
   k-points           NKPTS =      1   k-points in BZ     NKDIM =      1   number of bands    NBANDS=    320
   number of dos      NEDOS =    301   number of ions     NIONS =     67
   non local maximal  LDIM  =      6   non local SUM 2l+1 LMDIM =     18
   total plane-waves  NPLWV = 345600
   max r-space proj   IRMAX =   2871   max aug-charges    IRDMAX=  13207
   dimension x,y,z NGX =    60 NGY =   60 NGZ =   96
   dimension x,y,z NGXF=   120 NGYF=  120 NGZF=  192
   support grid    NGXF=   120 NGYF=  120 NGZF=  192
   ions per type =              64   1   2
   NGX,Y,Z   is equivalent  to a cutoff of   9.15,  9.15,  9.14 a.u.
   NGXF,Y,Z  is equivalent  to a cutoff of  18.30, 18.30, 18.29 a.u.

 SYSTEM =  Generated By Q_robot                    
 POSCAR =  Ru  N  H                                

 Startparameter for this run:
   NWRITE =      0    write-flag & timer
   PREC   = n         normal or accurate (medium, high low for compatibility)
   ISTART =      0    job   : 0-new  1-cont  2-samecut
   ICHARG =      2    charge: 1-file 2-atom 10-const
   ISPIN  =      1    spin polarized calculation?
   LNONCOLLINEAR =      F non collinear calculations
   LSORBIT =      F    spin-orbit coupling
   INIWAV =      1    electr: 0-lowe 1-rand  2-diag
   LASPH  =      F    aspherical Exc in radial PAW
 Electronic Relaxation 1
   ENCUT  =  500.0 eV  36.75 Ry    6.06 a.u.  19.88 19.88 31.82*2*pi/ulx,y,z
   ENINI  =  500.0     initial cutoff
   ENAUG  =  627.1 eV  augmentation charge cutoff
   NELM   =    400;   NELMIN=  2; NELMDL=  0     # of ELM steps 
   EDIFF  = 0.1E-04   stopping-criterion for ELM
   LREAL  =      T    real-space projection
   NLSPLINE    = F    spline interpolate recip. space projectors
   LCOMPAT=      F    compatible to vasp.4.4
   GGA_COMPAT  = T    GGA compatible to vasp.4.4-vasp.4.6
   LMAXPAW     = -100 max onsite density
   LMAXMIX     =    2 max onsite mixed and CHGCAR
   VOSKOWN=      0    Vosko Wilk Nusair interpolation
   ROPT   =   -0.00050  -0.00050  -0.00050
 Ionic relaxation
   EDIFFG = -.3E-01   stopping-criterion for IOM
   NSW    =    841    number of steps for IOM
   NBLOCK =      1;   KBLOCK =    841    inner block; outer block 
   IBRION =      5    ionic relax: 0-MD 1-quasi-New 2-CG
   NFREE  =      2    steps in history (QN), initial steepest desc. (CG)
   ISIF   =      2    stress and relaxation
   IWAVPR =     11    prediction:  0-non 1-charg 2-wave 3-comb
   ISYM   =      2    0-nonsym 1-usesym 2-fastsym
   LCORR  =      T    Harris-Foulkes like correction to forces

   POTIM  = 0.0150    time-step for ionic-motion
   TEIN   =    0.0    initial temperature
   TEBEG  =    0.0;   TEEND  =   0.0 temperature during run
   SMASS  =  -3.00    Nose mass-parameter (am)
   estimated Nose-frequenzy (Omega)   =  0.10E-29 period in steps = 0.42E+48 mass=  -0.272E-26a.u.
   SCALEE = 1.0000    scale energy and forces
   NPACO  =    256;   APACO  = 10.0  distance and # of slots for P.C.
   PSTRESS=    0.0 pullay stress

  Mass of Ions in am
   POMASS = 101.07 14.00  1.00
  Ionic Valenz
   ZVAL   =   8.00  5.00  1.00
  Atomic Wigner-Seitz radii
   RWIGS  =  -1.00 -1.00 -1.00
  virtual crystal weights 
   VCA    =   1.00  1.00  1.00
   NELECT =     519.0000    total number of electrons
   NUPDOWN=      -1.0000    fix difference up-down

 DOS related values:
   EMIN   =  10.00;   EMAX   =-10.00  energy-range for DOS
   EFERMI =   0.00;   METHOD = LEGACY      
   ISMEAR =     0;   SIGMA  =   0.01  broadening in eV -4-tet -1-fermi 0-gaus

 Electronic relaxation 2 (details)
   IALGO  =     68    algorithm
   LDIAG  =      T    sub-space diagonalisation (order eigenvalues)
   LSUBROT=      F    optimize rotation matrix (better conditioning)
   TURBO    =      0    0=normal 1=particle mesh
   IRESTART =      0    0=no restart 2=restart with 2 vectors
   NREBOOT  =      0    no. of reboots
   NMIN     =      0    reboot dimension
   EREF     =   0.00    reference energy to select bands
   IMIX   =      4    mixing-type and parameters
     AMIX     =   0.40;   BMIX     =  1.00
     AMIX_MAG =   1.60;   BMIX_MAG =  1.00
     AMIN     =   0.10
     WC   =   100.;   INIMIX=   1;  MIXPRE=   1;  MAXMIX= -45

 Intra band minimization:
   WEIMIN = 0.0010     energy-eigenvalue tresh-hold
   EBREAK =  0.78E-08  absolut break condition
   DEPER  =   0.30     relativ break condition  

   TIME   =   0.40     timestep for ELM

  volume/ion in A,a.u.               =      26.82       180.99
  Fermi-wavevector in a.u.,A,eV,Ry     =   1.082156  2.044978 15.933262  1.171062
  Thomas-Fermi vector in A             =   2.218191
 
 Write flags
   LWAVE        =      F    write WAVECAR
   LDOWNSAMPLE  =      F    k-point downsampling of WAVECAR
   LCHARG       =      F    write CHGCAR
   LVTOT        =      F    write LOCPOT, total local potential
   LVHAR        =      F    write LOCPOT, Hartree potential only
   LELF         =      F    write electronic localiz. function (ELF)
   LORBIT       =     11    0 simple, 1 ext, 2 COOP (PROOUT), +10 PAW based schemes


 Dipole corrections
   LMONO  =      F    monopole corrections only (constant potential shift)
   LDIPOL =      F    correct potential (dipole corrections)
   IDIPOL =      0    1-x, 2-y, 3-z, 4-all directions 
   EPSILON=  1.0000000 bulk dielectric constant

 Exchange correlation treatment:
   GGA     =    PE    GGA type
   LEXCH   =     8    internal setting for exchange type
   LIBXC   =     F    Libxc                    
   VOSKOWN =     0    Vosko Wilk Nusair interpolation
   LHFCALC =     F    Hartree Fock is set to
   LHFONE  =     F    Hartree Fock one center treatment
   AEXX    =    0.0000 exact exchange contribution

 Linear response parameters
   LEPSILON=     F    determine dielectric tensor
   LRPA    =     F    only Hartree local field effects (RPA)
   LNABLA  =     F    use nabla operator in PAW spheres
   LVEL    =     F    velocity operator in full k-point grid
   CSHIFT  =0.1000    complex shift for real part using Kramers Kronig
   OMEGAMAX=  -1.0    maximum frequency
   DEG_THRESHOLD= 0.2000000E-02 threshold for treating states as degnerate
   RTIME   =   -0.100 relaxation time in fs
  (WPLASMAI=    0.000 imaginary part of plasma frequency in eV, 0.658/RTIME)
   DFIELD  = 0.0000000 0.0000000 0.0000000 field for delta impulse in time
 
  Optional k-point grid parameters
   LKPOINTS_OPT  =     F    use optional k-point grid
   KPOINTS_OPT_MODE=     1    mode for optional k-point grid
 
 Orbital magnetization related:
   ORBITALMAG=     F  switch on orbital magnetization
   LCHIMAG   =     F  perturbation theory with respect to B field
   DQ        =  0.001000  dq finite difference perturbation B field
   LLRAUG    =     F  two centre corrections for induced B field
   LBONE     =     F  B-component reconstruction in AE one-centre
   LVGVCALC  =     T  calculate vGv susceptibility
   LVGVAPPL  =     F  apply vGv susceptibility instead of pGv for G=0

 Random number generation:
   RANDOM_GENERATOR = DEFAULT
   PCG_SEED         = not used


--------------------------------------------------------------------------------------------------------


 finite differences
   using selective dynamics as specified on POSCAR
   WARNING: If single coordinates had been selected the selection of coordinates
            is made according to the corresponding   d i r e c t   coordinates!
            Don't support selection of single cartesian coordinates -- sorry ...
  !
 charge density and potential will be updated during run
 non-spin polarized calculation
 RMM-DIIS sequential band-by-band and
  variant of blocked Davidson during initial phase
 perform sub-space diagonalisation
    before iterative eigenvector-optimisation
 modified Broyden-mixing scheme, WC =      100.0
 initial mixing is a Kerker type mixing with AMIX =  0.4000 and BMIX =      1.0000
 Hartree-type preconditioning will be used
 using additional bands           60
 real space projection scheme for non local part
 use partial core corrections
 calculate Harris-corrections to forces 
   (improved forces if not selfconsistent)
 use gradient corrections 
 use of overlap-Matrix (Vanderbilt PP)
 Gauss-broadening in eV      SIGMA  =   0.01


--------------------------------------------------------------------------------------------------------


  energy-cutoff  :      500.00
  volume of cell :     1796.89
      direct lattice vectors                 reciprocal lattice vectors
    10.903400421  0.000000000  0.000000000     0.091714508  0.052951396  0.000000000
    -5.451700211  9.442621752  0.000000000     0.000000000  0.105902791  0.000000000
     0.000000000  0.000000000 17.452899933     0.000000000  0.000000000  0.057297068

  length of vectors
    10.903400421 10.903400421 17.452899933     0.105902791  0.105902791  0.057297068


 
 k-points in units of 2pi/SCALE and weight: Kpoints                                 
   0.00000000  0.00000000  0.00000000       1.000
 
 k-points in reciprocal lattice and weights: Kpoints                                 
   0.00000000  0.00000000  0.00000000       1.000
 
 position of ions in fractional coordinates (direct lattice) 
   0.08333000  0.16667000  0.00000000
   0.33332999  0.16667000  0.00000000
   0.08333000  0.41667001  0.00000000
   0.33333000  0.41667001  0.00000000
   0.58333001  0.16667000  0.00000000
   0.83332993  0.16667000  0.00000000
   0.58332998  0.41667001  0.00000000
   0.83332998  0.41667001  0.00000000
   0.08333002  0.66667005  0.00000000
   0.33333002  0.66667005  0.00000000
   0.08332999  0.91667003  0.00000000
   0.33332999  0.91667003  0.00000000
   0.58333002  0.66667005  0.00000000
   0.83332995  0.66667005  0.00000000
   0.58332999  0.91667003  0.00000000
   0.83332994  0.91667003  0.00000000
   0.16667000  0.08333000  0.12324000
   0.41666999  0.08333000  0.12324000
   0.16667001  0.33333002  0.12324000
   0.41667002  0.33333002  0.12324000
   0.66666999  0.08333000  0.12324000
   0.91667003  0.08333000  0.12324000
   0.66667000  0.33333002  0.12324000
   0.91667008  0.33333002  0.12324000
   0.16666999  0.58332998  0.12324000
   0.41667000  0.58332998  0.12324000
   0.16667004  0.83333002  0.12324000
   0.41667004  0.83333002  0.12324000
   0.66667002  0.58332998  0.12324000
   0.91667002  0.58332998  0.12324000
   0.66667004  0.83333002  0.12324000
   0.91667008  0.83333002  0.12324000
   0.08360294  0.16683231  0.24530176
   0.33235842  0.16471695  0.24540729
   0.08357369  0.41672655  0.24527057
   0.33279111  0.41742571  0.24556325
   0.58323041  0.16683280  0.24530111
   0.83354956  0.16709806  0.24524556
   0.58463371  0.41742725  0.24556425
   0.83315823  0.41672769  0.24527160
   0.08299571  0.66599381  0.24576581
   0.33228460  0.66605127  0.24507581
   0.08319612  0.91701921  0.24534805
   0.33381799  0.91702599  0.24534624
   0.58285127  0.66570440  0.24521498
   0.83375137  0.66603955  0.24508000
   0.58292415  0.91602970  0.24546647
   0.83311790  0.91603518  0.24546577
   0.16550287  0.08251096  0.36409726
   0.41700403  0.08251566  0.36409906
   0.16528627  0.33199909  0.36452289
   0.41329806  0.32660289  0.36240971
   0.66695248  0.08387657  0.36395531
   0.91692276  0.08388017  0.36395527
   0.66670613  0.33200263  0.36452541
   0.91691620  0.33383306  0.36439731
   0.16785604  0.58348420  0.36410370
   0.41894128  0.58232638  0.36842890
   0.16590230  0.83180332  0.36420321
   0.41664240  0.83406825  0.36393123
   0.66334085  0.58232437  0.36845364
   0.91561655  0.58348495  0.36410664
   0.67010415  0.84020608  0.36342800
   0.91741657  0.83406037  0.36393401
   0.53995110  0.58003779  0.46218067
   0.58387035  0.66794187  0.49642221
   0.49629852  0.49289908  0.49692688
 
 position of ions in cartesian coordinates  (Angst):
  -0.00005448  1.57380176  0.00000000
   2.72579551  1.57380176  0.00000000
  -1.36297965  3.93445730  0.00000000
   1.36287046  3.93445730  0.00000000
   5.45164585  1.57380176  0.00000000
   8.17749500  1.57380176  0.00000000
   4.08872032  3.93445730  0.00000000
   6.81457043  3.93445730  0.00000000
  -2.72590470  6.29511309  0.00000000
  -0.00005460  6.29511309  0.00000000
  -4.08883000  8.65576839  0.00000000
  -1.36297989  8.65576839  0.00000000
   2.72579551  6.29511309  0.00000000
   5.45164489  6.29511309  0.00000000
   1.36287021  8.65576839  0.00000000
   4.08871985  8.65576839  0.00000000
   1.36297954  0.78685367  2.15089535
   4.08882952  0.78685367  2.15089535
   0.00005448  3.14750934  2.15089535
   2.72590470  3.14750934  2.15089535
   6.81467963  0.78685367  2.15089535
   9.54053020  0.78685367  2.15089535
   5.45175457  3.14750934  2.15089535
   8.17760563  3.14750934  2.15089535
  -1.36287057  5.50816441  2.15089535
   1.36297965  5.50816441  2.15089535
  -2.72579527  7.86882019  2.15089535
   0.00005483  7.86882019  2.15089535
   4.08883000  5.50816441  2.15089535
   6.81468010  5.50816441  2.15089535
   2.72590494  7.86882019  2.15089535
   5.45175552  7.86882019  2.15089535
   0.00203660  1.57533437  4.28122715
   2.72584954  1.55535988  4.28306890
  -1.36063083  3.93499116  4.28068277
   1.35287488  3.94159305  4.28579086
   5.44967235  1.57533899  4.28121575
   8.17755611  1.57784378  4.28024629
   4.09880720  3.94160763  4.28580832
   6.81238340  3.93500194  4.28070072
  -2.72586314  6.28872765  4.28932608
  -0.00807979  6.28927017  4.27728366
  -4.09219321  8.65906556  4.28203504
  -1.35959957  8.65912960  4.28200336
   2.72583997  6.28599484  4.27971247
   5.45967706  6.28915953  4.27735675
   1.36193614  8.64972201  4.28410168
   4.08986885  8.64977368  4.28408955
   1.35471900  0.77911976  6.35455301
   4.09691122  0.77916421  6.35458439
  -0.00777717  3.13494182  6.36198150
   2.72581318  3.08398760  6.32510041
   6.81478004  0.79201477  6.35207565
   9.54028645  0.79204868  6.35207498
   5.45938514  3.13497525  6.36202545
   8.17754670  3.15225929  6.35978984
  -1.35077935  5.50962056  6.35466536
   1.39321570  5.49868775  6.43015272
  -2.72584314  7.85440411  6.35640216
  -0.00427111  7.87579102  6.35165534
   4.05801305  5.49866874  6.43058451
   6.80234881  5.50962769  6.35471681
   2.72586218  7.93374825  6.34287250
   5.45591317  7.87571655  6.35170393
   2.72511086  5.47707746  8.06639300
   2.72475339  6.30712242  8.66400722
   2.72420346  4.65425956  8.67281512
 


--------------------------------------------------------------------------------------------------------


 k-point   1 :   0.0000 0.0000 0.0000  plane waves:   45603

 maximum and minimum number of plane-waves per node :     45603    45603

 maximum number of plane-waves:     45603
 maximum index in each direction: 
   IXMAX=   19   IYMAX=   19   IZMAX=   31
   IXMIN=  -19   IYMIN=  -19   IZMIN=  -31


 serial   3D FFT for wavefunctions
 parallel 3D FFT for charge:
    minimum data exchange during FFTs selected (reduces bandwidth)


 total amount of memory used by VASP MPI-rank0    94435. kBytes
=======================================================================

   base      :      30000. kBytes
   nonlr-proj:      31594. kBytes
   fftplans  :       4485. kBytes
   grid      :      19825. kBytes
   one-center:       1041. kBytes
   wavefun   :       7490. kBytes
 
     INWAV:  cpu time      0.0000: real time      0.0000
 Broyden mixing: mesh for mixing (old mesh)
   NGX = 39   NGY = 39   NGZ = 63
  (NGX  =120   NGY  =120   NGZ  =192)
  gives a total of  95823 points

 initial charge density was supplied:
 charge density of overlapping atoms calculated
 number of electron     519.0000000 magnetization 
 keeping initial charge density in first step


--------------------------------------------------------------------------------------------------------


 Maximum index for non-local projection operator         2813
 Maximum index for augmentation-charges          561 (set IRDMAX)


--------------------------------------------------------------------------------------------------------


 First call to EWALD:  gamma=   0.146
 Maximum number of real-space cells 3x 3x 2
 Maximum number of reciprocal cells 3x 3x 4

    FEWALD:  cpu time      0.0029: real time      0.0029


--------------------------------------- Ionic step        1  -------------------------------------------




--------------------------------------- Iteration      1(   1)  ---------------------------------------


    POTLOK:  cpu time      0.3505: real time      0.4477
    SETDIJ:  cpu time      0.0122: real time      0.0123
     EDDAV:  cpu time      2.6023: real time      4.0742
       DOS:  cpu time      0.0024: real time      0.0025
    --------------------------------------------
      LOOP:  cpu time      2.9675: real time      4.5368

 eigenvalue-minimisations  :   640
 total energy-change (2. order) : 0.3208182E+04  (-0.2260086E+05)
 number of electron     519.0000000 magnetization 
 augmentation part      519.0000000 magnetization 

 Free energy of the ion-electron system (eV)
  ---------------------------------------------------
  alpha Z        PSCENC =      1067.80298853
  Ewald energy   TEWEN  =     57065.45584599
  -Hartree energ DENC   =    -89403.37056531
  -exchange      EXHF   =         0.00000000
  -V(xc)+E(xc)   XCENC  =     -2039.45805826
  PAW double counting   =     29819.70263210   -26701.76909094
  entropy T*S    EENTRO =        -0.00564190
  eigenvalues    EBANDS =      3997.85792843
  atomic energy  EATOM  =     29401.96565168
  Solvation  Ediel_sol  =         0.00000000
  ---------------------------------------------------
  free energy    TOTEN  =      3208.18169033 eV

  energy without entropy =     3208.18733223  energy(sigma->0) =     3208.18451128


--------------------------------------------------------------------------------------------------------




--------------------------------------- Iteration      1(   2)  ---------------------------------------


     EDDAV:  cpu time      2.8203: real time      4.8973
       DOS:  cpu time      0.0005: real time      0.0005
    --------------------------------------------
      LOOP:  cpu time      2.8207: real time      4.8978

 eigenvalue-minimisations  :   672
 total energy-change (2. order) :-0.3542092E+04  (-0.3322433E+04)
 number of electron     519.0000000 magnetization 
 augmentation part      519.0000000 magnetization 

 Free energy of the ion-electron system (eV)
  ---------------------------------------------------
  alpha Z        PSCENC =      1067.80298853
  Ewald energy   TEWEN  =     57065.45584599
  -Hartree energ DENC   =    -89403.37056531
  -exchange      EXHF   =         0.00000000
  -V(xc)+E(xc)   XCENC  =     -2039.45805826
  PAW double counting   =     29819.70263210   -26701.76909094
  entropy T*S    EENTRO =        -0.00657694
  eigenvalues    EBANDS =       455.76704780
  atomic energy  EATOM  =     29401.96565168
  Solvation  Ediel_sol  =         0.00000000
  ---------------------------------------------------
  free energy    TOTEN  =      -333.91012533 eV

  energy without entropy =     -333.90354839  energy(sigma->0) =     -333.90683686


--------------------------------------------------------------------------------------------------------




--------------------------------------- Iteration      1(   3)  ---------------------------------------


     EDDAV:  cpu time      4.0499: real time      6.0533
       DOS:  cpu time      0.0006: real time      0.0006
    --------------------------------------------
      LOOP:  cpu time      4.0504: real time      6.0539

 eigenvalue-minimisations  :  1056
 total energy-change (2. order) :-0.2753197E+03  (-0.2602480E+03)
 number of electron     519.0000000 magnetization 
 augmentation part      519.0000000 magnetization 

 Free energy of the ion-electron system (eV)
  ---------------------------------------------------
  alpha Z        PSCENC =      1067.80298853
  Ewald energy   TEWEN  =     57065.45584599
  -Hartree energ DENC   =    -89403.37056531
  -exchange      EXHF   =         0.00000000
  -V(xc)+E(xc)   XCENC  =     -2039.45805826
  PAW double counting   =     29819.70263210   -26701.76909094
  entropy T*S    EENTRO =        -0.00755753
  eigenvalues    EBANDS =       180.44836929
  atomic energy  EATOM  =     29401.96565168
  Solvation  Ediel_sol  =         0.00000000
  ---------------------------------------------------
  free energy    TOTEN  =      -609.22978444 eV

  energy without entropy =     -609.22222691  energy(sigma->0) =     -609.22600568


--------------------------------------------------------------------------------------------------------




--------------------------------------- Iteration      1(   4)  ---------------------------------------


     EDDAV:  cpu time      3.0332: real time      3.9584
       DOS:  cpu time      0.0005: real time      0.0005
    --------------------------------------------
      LOOP:  cpu time      3.0337: real time      3.9589

 eigenvalue-minimisations  :   832
 total energy-change (2. order) :-0.1471843E+02  (-0.1415778E+02)
 number of electron     519.0000000 magnetization 
 augmentation part      519.0000000 magnetization 

 Free energy of the ion-electron system (eV)
  ---------------------------------------------------
  alpha Z        PSCENC =      1067.80298853
  Ewald energy   TEWEN  =     57065.45584599
  -Hartree energ DENC   =    -89403.37056531
  -exchange      EXHF   =         0.00000000
  -V(xc)+E(xc)   XCENC  =     -2039.45805826
  PAW double counting   =     29819.70263210   -26701.76909094
  entropy T*S    EENTRO =        -0.00857482
  eigenvalues    EBANDS =       165.73095475
  atomic energy  EATOM  =     29401.96565168
  Solvation  Ediel_sol  =         0.00000000
  ---------------------------------------------------
  free energy    TOTEN  =      -623.94821626 eV

  energy without entropy =     -623.93964145  energy(sigma->0) =     -623.94392886


--------------------------------------------------------------------------------------------------------




--------------------------------------- Iteration      1(   5)  ---------------------------------------


     EDDAV:  cpu time      3.3656: real time      3.3935
       DOS:  cpu time      0.0005: real time      0.0005
    CHARGE:  cpu time      0.1332: real time      0.1578
    MIXING:  cpu time      0.0036: real time      0.0038
    --------------------------------------------
      LOOP:  cpu time      3.5030: real time      3.5556

 eigenvalue-minimisations  :   960
 total energy-change (2. order) :-0.6284589E+00  (-0.6210022E+00)
 number of electron     518.9999690 magnetization 
 augmentation part      162.4223120 magnetization 

 Broyden mixing:
  rms(total) = 0.86164E+01    rms(broyden)= 0.86163E+01
  rms(prec ) = 0.89253E+01
  weight for this iteration     100.00

 Free energy of the ion-electron system (eV)
  ---------------------------------------------------
  alpha Z        PSCENC =      1067.80298853
  Ewald energy   TEWEN  =     57065.45584599
  -Hartree energ DENC   =    -89403.37056531
  -exchange      EXHF   =         0.00000000
  -V(xc)+E(xc)   XCENC  =     -2039.45805826
  PAW double counting   =     29819.70263210   -26701.76909094
  entropy T*S    EENTRO =        -0.00843552
  eigenvalues    EBANDS =       165.10235656
  atomic energy  EATOM  =     29401.96565168
  Solvation  Ediel_sol  =         0.00000000
  ---------------------------------------------------
  free energy    TOTEN  =      -624.57667516 eV

  energy without entropy =     -624.56823964  energy(sigma->0) =     -624.57245740


--------------------------------------------------------------------------------------------------------




--------------------------------------- Iteration      1(   6)  ---------------------------------------


    POTLOK:  cpu time      0.0692: real time      0.0702
    SETDIJ:  cpu time      0.0093: real time      0.0093
    EDDIAG:  cpu time      0.4360: real time      0.4376
  RMM-DIIS:  cpu time      1.1487: real time      1.1530
    ORTHCH:  cpu time      0.1546: real time      0.1553
       DOS:  cpu time      0.0029: real time      0.0029
    CHARGE:  cpu time      0.1181: real time      0.1186
    MIXING:  cpu time      0.0024: real time      0.0024
    --------------------------------------------
      LOOP:  cpu time      1.9411: real time      1.9493

 eigenvalue-minimisations  :   653
 total energy-change (2. order) : 0.2747961E+02  (-0.1422050E+02)
 number of electron     518.9999680 magnetization 
 augmentation part      171.7776141 magnetization 

 Broyden mixing:
  rms(total) = 0.38987E+01    rms(broyden)= 0.38987E+01
  rms(prec ) = 0.50357E+01
  weight for this iteration     100.00

 eigenvalues of (default mixing * dielectric matrix)
  average eigenvalue GAMMA=   1.2353
  1.2353

 Free energy of the ion-electron system (eV)
  ---------------------------------------------------
  alpha Z        PSCENC =      1067.80298853
  Ewald energy   TEWEN  =     57065.45584599
  -Hartree energ DENC   =    -89382.10660090
  -exchange      EXHF   =         0.00000000
  -V(xc)+E(xc)   XCENC  =     -2041.46043307
  PAW double counting   =     34471.94308327   -31428.53178965
  entropy T*S    EENTRO =        -0.01033689
  eigenvalues    EBANDS =       247.84452691
  atomic energy  EATOM  =     29401.96565168
  Solvation  Ediel_sol  =         0.00000000
  ---------------------------------------------------
  free energy    TOTEN  =      -597.09706413 eV

  energy without entropy =     -597.08672724  energy(sigma->0) =     -597.09189568


--------------------------------------------------------------------------------------------------------




--------------------------------------- Iteration      1(   7)  ---------------------------------------


    POTLOK:  cpu time      0.0814: real time      0.0821
    SETDIJ:  cpu time      0.0103: real time      0.0103
    EDDIAG:  cpu time      0.4484: real time      0.6947
  RMM-DIIS:  cpu time      1.5283: real time      1.5343
    ORTHCH:  cpu time      0.1074: real time      0.1079
       DOS:  cpu time      0.0017: real time      0.0017
    CHARGE:  cpu time      0.1188: real time      0.1193
    MIXING:  cpu time      0.0021: real time      0.0021
    --------------------------------------------
      LOOP:  cpu time      2.2984: real time      2.5525

 eigenvalue-minimisations  :   864
 total energy-change (2. order) :-0.1553444E+03  (-0.4351526E+02)
 number of electron     518.9999681 magnetization 
 augmentation part      182.2345677 magnetization 

 Broyden mixing:
  rms(total) = 0.99089E+01    rms(broyden)= 0.99089E+01
  rms(prec ) = 0.17853E+02
  weight for this iteration     100.00

 eigenvalues of (default mixing * dielectric matrix)
  average eigenvalue GAMMA=   0.8781
  1.5681  0.1881

 Free energy of the ion-electron system (eV)
  ---------------------------------------------------
  alpha Z        PSCENC =      1067.80298853
  Ewald energy   TEWEN  =     57065.45584599
  -Hartree energ DENC   =    -88987.16974645
  -exchange      EXHF   =         0.00000000
  -V(xc)+E(xc)   XCENC  =     -2039.44622926
  PAW double counting   =     36822.46638204   -33816.61974482
  entropy T*S    EENTRO =        -0.00564212
  eigenvalues    EBANDS =      -266.89100347
  atomic energy  EATOM  =     29401.96565168
  Solvation  Ediel_sol  =         0.00000000
  ---------------------------------------------------
  free energy    TOTEN  =      -752.44149787 eV

  energy without entropy =     -752.43585575  energy(sigma->0) =     -752.43867681


--------------------------------------------------------------------------------------------------------




--------------------------------------- Iteration      1(   8)  ---------------------------------------


    POTLOK:  cpu time      0.0602: real time      0.0609
    SETDIJ:  cpu time      0.0086: real time      0.0087
    EDDIAG:  cpu time      0.4274: real time      0.4294
  RMM-DIIS:  cpu time      1.2095: real time      1.2145
    ORTHCH:  cpu time      0.1188: real time      0.1193
       DOS:  cpu time      0.0016: real time      0.0016
    CHARGE:  cpu time      0.1136: real time      0.1140
    MIXING:  cpu time      0.0019: real time      0.0019
    --------------------------------------------
      LOOP:  cpu time      1.9416: real time      1.9502

 eigenvalue-minimisations  :   693
 total energy-change (2. order) : 0.4522057E+02  (-0.1573451E+02)
 number of electron     518.9999645 magnetization 
 augmentation part      182.0277940 magnetization 

 Broyden mixing:
  rms(total) = 0.83130E+01    rms(broyden)= 0.83130E+01
  rms(prec ) = 0.16708E+02
  weight for this iteration     100.00

 eigenvalues of (default mixing * dielectric matrix)
  average eigenvalue GAMMA=   0.6460
  1.6352  0.1979  0.1050

 Free energy of the ion-electron system (eV)
  ---------------------------------------------------
  alpha Z        PSCENC =      1067.80298853
  Ewald energy   TEWEN  =     57065.45584599
  -Hartree energ DENC   =    -89180.36093508
  -exchange      EXHF   =         0.00000000
  -V(xc)+E(xc)   XCENC  =     -2039.77284242
  PAW double counting   =     38453.81325503   -35470.14269656
  entropy T*S    EENTRO =        -0.00578583
  eigenvalues    EBANDS =        -5.97640745
  atomic energy  EATOM  =     29401.96565168
  Solvation  Ediel_sol  =         0.00000000
  ---------------------------------------------------
  free energy    TOTEN  =      -707.22092612 eV

  energy without entropy =     -707.21514028  energy(sigma->0) =     -707.21803320


--------------------------------------------------------------------------------------------------------




--------------------------------------- Iteration      1(   9)  ---------------------------------------


    POTLOK:  cpu time      0.0550: real time      0.0602
    SETDIJ:  cpu time      0.0084: real time      0.0084
    EDDIAG:  cpu time      0.4378: real time      0.7549
  RMM-DIIS:  cpu time      1.2644: real time      1.2696
    ORTHCH:  cpu time      0.1012: real time      0.1016
       DOS:  cpu time      0.0016: real time      0.0016
    CHARGE:  cpu time      0.1186: real time      0.1190
    MIXING:  cpu time      0.0021: real time      0.0021
    --------------------------------------------
      LOOP:  cpu time      1.9892: real time      2.3174

 eigenvalue-minimisations  :   694
 total energy-change (2. order) : 0.1297199E+03  (-0.7504383E+01)
 number of electron     518.9999649 magnetization 
 augmentation part      174.8745048 magnetization 

 Broyden mixing:
  rms(total) = 0.17372E+01    rms(broyden)= 0.17372E+01
  rms(prec ) = 0.29593E+01
  weight for this iteration     100.00

 eigenvalues of (default mixing * dielectric matrix)
  average eigenvalue GAMMA=   0.6040
  1.5814  0.4927  0.2331  0.1088

 Free energy of the ion-electron system (eV)
  ---------------------------------------------------
  alpha Z        PSCENC =      1067.80298853
  Ewald energy   TEWEN  =     57065.45584599
  -Hartree energ DENC   =    -89347.41058500
  -exchange      EXHF   =         0.00000000
  -V(xc)+E(xc)   XCENC  =     -2040.24077871
  PAW double counting   =     39334.54375720   -36362.11751468
  entropy T*S    EENTRO =        -0.01839500
  eigenvalues    EBANDS =       302.51804242
  atomic energy  EATOM  =     29401.96565168
  Solvation  Ediel_sol  =         0.00000000
  ---------------------------------------------------
  free energy    TOTEN  =      -577.50098757 eV

  energy without entropy =     -577.48259257  energy(sigma->0) =     -577.49179007


--------------------------------------------------------------------------------------------------------




--------------------------------------- Iteration      1(  10)  ---------------------------------------


    POTLOK:  cpu time      0.0703: real time      0.0709
    SETDIJ:  cpu time      0.0088: real time      0.0088
    EDDIAG:  cpu time      0.4191: real time      0.4206
  RMM-DIIS:  cpu time      1.4957: real time      1.5007
    ORTHCH:  cpu time      0.1130: real time      0.1134
       DOS:  cpu time      0.0015: real time      0.0015
    CHARGE:  cpu time      0.1211: real time      0.1215
    MIXING:  cpu time      0.0021: real time      0.0021
    --------------------------------------------
      LOOP:  cpu time      2.2316: real time      2.2396

 eigenvalue-minimisations  :   823
 total energy-change (2. order) :-0.9997507E+00  (-0.4262669E+01)
 number of electron     518.9999649 magnetization 
 augmentation part      175.6379161 magnetization 

 Broyden mixing:
  rms(total) = 0.10818E+01    rms(broyden)= 0.10818E+01
  rms(prec ) = 0.14780E+01
  weight for this iteration     100.00

 eigenvalues of (default mixing * dielectric matrix)
  average eigenvalue GAMMA=   0.5335
  1.5710  0.4363  0.1077  0.3122  0.2406

 Free energy of the ion-electron system (eV)
  ---------------------------------------------------
  alpha Z        PSCENC =      1067.80298853
  Ewald energy   TEWEN  =     57065.45584599
  -Hartree energ DENC   =    -89338.12682033
  -exchange      EXHF   =         0.00000000
  -V(xc)+E(xc)   XCENC  =     -2040.35728892
  PAW double counting   =     39475.25764803   -36506.31881618
  entropy T*S    EENTRO =        -0.01698516
  eigenvalues    EBANDS =       295.83703811
  atomic energy  EATOM  =     29401.96565168
  Solvation  Ediel_sol  =         0.00000000
  ---------------------------------------------------
  free energy    TOTEN  =      -578.50073825 eV

  energy without entropy =     -578.48375309  energy(sigma->0) =     -578.49224567


--------------------------------------------------------------------------------------------------------




--------------------------------------- Iteration      1(  11)  ---------------------------------------


    POTLOK:  cpu time      0.0751: real time      0.0758
    SETDIJ:  cpu time      0.0087: real time      0.0088
    EDDIAG:  cpu time      0.4286: real time      0.4318
  RMM-DIIS:  cpu time      1.2118: real time      1.2160
    ORTHCH:  cpu time      0.1012: real time      0.1016
       DOS:  cpu time      0.0015: real time      0.0015
    CHARGE:  cpu time      0.1114: real time      0.1118
    MIXING:  cpu time      0.0021: real time      0.0021
    --------------------------------------------
      LOOP:  cpu time      1.9404: real time      1.9493

 eigenvalue-minimisations  :   730
 total energy-change (2. order) : 0.7609043E+00  (-0.7957703E+00)
 number of electron     518.9999650 magnetization 
 augmentation part      175.3377124 magnetization 

 Broyden mixing:
  rms(total) = 0.66945E+00    rms(broyden)= 0.66944E+00
  rms(prec ) = 0.82343E+00
  weight for this iteration     100.00

 eigenvalues of (default mixing * dielectric matrix)
  average eigenvalue GAMMA=   0.5414
  1.5643  0.5733  0.5733  0.1079  0.2273  0.2024

 Free energy of the ion-electron system (eV)
  ---------------------------------------------------
  alpha Z        PSCENC =      1067.80298853
  Ewald energy   TEWEN  =     57065.45584599
  -Hartree energ DENC   =    -89337.21724637
  -exchange      EXHF   =         0.00000000
  -V(xc)+E(xc)   XCENC  =     -2040.33552737
  PAW double counting   =     39569.44068376   -36602.01650581
  entropy T*S    EENTRO =        -0.00685337
  eigenvalues    EBANDS =       297.17112900
  atomic energy  EATOM  =     29401.96565168
  Solvation  Ediel_sol  =         0.00000000
  ---------------------------------------------------
  free energy    TOTEN  =      -577.73983395 eV

  energy without entropy =     -577.73298058  energy(sigma->0) =     -577.73640727


--------------------------------------------------------------------------------------------------------




--------------------------------------- Iteration      1(  12)  ---------------------------------------


    POTLOK:  cpu time      0.0706: real time      0.0712
    SETDIJ:  cpu time      0.0084: real time      0.0084
    EDDIAG:  cpu time      0.4018: real time      0.4038
  RMM-DIIS:  cpu time      1.5209: real time      1.5282
    ORTHCH:  cpu time      0.1185: real time      0.1191
       DOS:  cpu time      0.0017: real time      0.0017
    CHARGE:  cpu time      0.1260: real time      0.1266
    MIXING:  cpu time      0.0023: real time      0.0023
    --------------------------------------------
      LOOP:  cpu time      2.2503: real time      2.2614

 eigenvalue-minimisations  :   841
 total energy-change (2. order) :-0.1506178E+00  (-0.2940795E+00)
 number of electron     518.9999649 magnetization 
 augmentation part      175.3608894 magnetization 

 Broyden mixing:
  rms(total) = 0.66388E+00    rms(broyden)= 0.66388E+00
  rms(prec ) = 0.85217E+00
  weight for this iteration     100.00

 eigenvalues of (default mixing * dielectric matrix)
  average eigenvalue GAMMA=   0.5372
  1.5528  0.7318  0.7318  0.1079  0.2333  0.2333  0.1695

 Free energy of the ion-electron system (eV)
  ---------------------------------------------------
  alpha Z        PSCENC =      1067.80298853
  Ewald energy   TEWEN  =     57065.45584599
  -Hartree energ DENC   =    -89328.19978298
  -exchange      EXHF   =         0.00000000
  -V(xc)+E(xc)   XCENC  =     -2040.26205887
  PAW double counting   =     39711.33304415   -36745.97972336
  entropy T*S    EENTRO =        -0.01624175
  eigenvalues    EBANDS =       290.00982486
  atomic energy  EATOM  =     29401.96565168
  Solvation  Ediel_sol  =         0.00000000
  ---------------------------------------------------
  free energy    TOTEN  =      -577.89045175 eV

  energy without entropy =     -577.87421000  energy(sigma->0) =     -577.88233087


--------------------------------------------------------------------------------------------------------




--------------------------------------- Iteration      1(  13)  ---------------------------------------


    POTLOK:  cpu time      0.0713: real time      0.0747
    SETDIJ:  cpu time      0.0106: real time      0.0107
    EDDIAG:  cpu time      0.4355: real time      0.4406
  RMM-DIIS:  cpu time      1.2179: real time      1.2238
    ORTHCH:  cpu time      0.1095: real time      0.1100
       DOS:  cpu time      0.0017: real time      0.0017
    CHARGE:  cpu time      0.1286: real time      0.1291
    MIXING:  cpu time      0.0022: real time      0.0022
    --------------------------------------------
      LOOP:  cpu time      1.9773: real time      1.9928

 eigenvalue-minimisations  :   669
 total energy-change (2. order) : 0.1848915E+00  (-0.7442290E-01)
 number of electron     518.9999648 magnetization 
 augmentation part      175.9638954 magnetization 

 Broyden mixing:
  rms(total) = 0.52461E+00    rms(broyden)= 0.52461E+00
  rms(prec ) = 0.80082E+00
  weight for this iteration     100.00

 eigenvalues of (default mixing * dielectric matrix)
  average eigenvalue GAMMA=   0.5652
  1.5236  0.9558  0.9558  0.3349  0.2495  0.2385  0.1080  0.1553

 Free energy of the ion-electron system (eV)
  ---------------------------------------------------
  alpha Z        PSCENC =      1067.80298853
  Ewald energy   TEWEN  =     57065.45584599
  -Hartree energ DENC   =    -89317.88035824
  -exchange      EXHF   =         0.00000000
  -V(xc)+E(xc)   XCENC  =     -2040.19279033
  PAW double counting   =     39856.15730918   -36893.01553875
  entropy T*S    EENTRO =        -0.01166215
  eigenvalues    EBANDS =       282.01299382
  atomic energy  EATOM  =     29401.96565168
  Solvation  Ediel_sol  =         0.00000000
  ---------------------------------------------------
  free energy    TOTEN  =      -577.70556028 eV

  energy without entropy =     -577.69389813  energy(sigma->0) =     -577.69972920


--------------------------------------------------------------------------------------------------------




--------------------------------------- Iteration      1(  14)  ---------------------------------------


    POTLOK:  cpu time      0.0684: real time      0.0692
    SETDIJ:  cpu time      0.0086: real time      0.0087
    EDDIAG:  cpu time      0.4478: real time      0.4500
  RMM-DIIS:  cpu time      1.2914: real time      1.2984
    ORTHCH:  cpu time      0.1749: real time      0.1758
       DOS:  cpu time      0.0016: real time      0.0016
    CHARGE:  cpu time      0.1233: real time      0.1239
    MIXING:  cpu time      0.0025: real time      0.0025
    --------------------------------------------
      LOOP:  cpu time      2.1186: real time      2.1301

 eigenvalue-minimisations  :   737
 total energy-change (2. order) :-0.1148279E-02  (-0.5416643E-01)
 number of electron     518.9999647 magnetization 
 augmentation part      175.5279714 magnetization 

 Broyden mixing:
  rms(total) = 0.54535E+00    rms(broyden)= 0.54534E+00
  rms(prec ) = 0.79713E+00
  weight for this iteration     100.00

 eigenvalues of (default mixing * dielectric matrix)
  average eigenvalue GAMMA=   0.5618
  1.4904  1.1304  1.1304  0.3936  0.2816  0.2247  0.1079  0.1684  0.1290

 Free energy of the ion-electron system (eV)
  ---------------------------------------------------
  alpha Z        PSCENC =      1067.80298853
  Ewald energy   TEWEN  =     57065.45584599
  -Hartree energ DENC   =    -89322.63998242
  -exchange      EXHF   =         0.00000000
  -V(xc)+E(xc)   XCENC  =     -2040.05004085
  PAW double counting   =     39993.98834637   -37032.64276644
  entropy T*S    EENTRO =        -0.01305605
  eigenvalues    EBANDS =       288.42630464
  atomic energy  EATOM  =     29401.96565168
  Solvation  Ediel_sol  =         0.00000000
  ---------------------------------------------------
  free energy    TOTEN  =      -577.70670856 eV

  energy without entropy =     -577.69365251  energy(sigma->0) =     -577.70018053


--------------------------------------------------------------------------------------------------------




--------------------------------------- Iteration      1(  15)  ---------------------------------------


    POTLOK:  cpu time      0.0645: real time      0.0652
    SETDIJ:  cpu time      0.0090: real time      0.0091
    EDDIAG:  cpu time      0.4338: real time      0.4375
  RMM-DIIS:  cpu time      1.1740: real time      1.1787
    ORTHCH:  cpu time      0.1105: real time      0.1109
       DOS:  cpu time      0.0017: real time      0.0017
    CHARGE:  cpu time      0.1194: real time      0.1199
    MIXING:  cpu time      0.0025: real time      0.0025
    --------------------------------------------
      LOOP:  cpu time      1.9153: real time      1.9254

 eigenvalue-minimisations  :   680
 total energy-change (2. order) : 0.1335048E+00  (-0.2068726E-01)
 number of electron     518.9999647 magnetization 
 augmentation part      175.9470049 magnetization 

 Broyden mixing:
  rms(total) = 0.35195E+00    rms(broyden)= 0.35194E+00
  rms(prec ) = 0.52680E+00
  weight for this iteration     100.00

 eigenvalues of (default mixing * dielectric matrix)
  average eigenvalue GAMMA=   0.5713
  1.4572  1.3102  1.3102  0.3854  0.3854  0.2283  0.2283  0.1080  0.1625  0.1379

 Free energy of the ion-electron system (eV)
  ---------------------------------------------------
  alpha Z        PSCENC =      1067.80298853
  Ewald energy   TEWEN  =     57065.45584599
  -Hartree energ DENC   =    -89326.25613894
  -exchange      EXHF   =         0.00000000
  -V(xc)+E(xc)   XCENC  =     -2039.95720139
  PAW double counting   =     40088.82488983   -37128.88539301
  entropy T*S    EENTRO =        -0.01442076
  eigenvalues    EBANDS =       293.49057433
  atomic energy  EATOM  =     29401.96565168
  Solvation  Ediel_sol  =         0.00000000
  ---------------------------------------------------
  free energy    TOTEN  =      -577.57320374 eV

  energy without entropy =     -577.55878298  energy(sigma->0) =     -577.56599336


--------------------------------------------------------------------------------------------------------




--------------------------------------- Iteration      1(  16)  ---------------------------------------


    POTLOK:  cpu time      0.0584: real time      0.0591
    SETDIJ:  cpu time      0.0090: real time      0.0090
    EDDIAG:  cpu time      0.4262: real time      0.4279
  RMM-DIIS:  cpu time      1.2468: real time      1.2516
    ORTHCH:  cpu time      0.1044: real time      0.1050
       DOS:  cpu time      0.0016: real time      0.0016
    CHARGE:  cpu time      0.1222: real time      0.1228
    MIXING:  cpu time      0.0024: real time      0.0024
    --------------------------------------------
      LOOP:  cpu time      1.9711: real time      1.9795

 eigenvalue-minimisations  :   710
 total energy-change (2. order) : 0.5271156E-01  (-0.1656279E-01)
 number of electron     518.9999648 magnetization 
 augmentation part      175.8297095 magnetization 

 Broyden mixing:
  rms(total) = 0.30992E+00    rms(broyden)= 0.30992E+00
  rms(prec ) = 0.44304E+00
  weight for this iteration     100.00

 eigenvalues of (default mixing * dielectric matrix)
  average eigenvalue GAMMA=   0.5983
  1.5464  1.5464  1.4252  0.5044  0.5044  0.2684  0.2154  0.1911  0.1558  0.1080
  0.1162

 Free energy of the ion-electron system (eV)
  ---------------------------------------------------
  alpha Z        PSCENC =      1067.80298853
  Ewald energy   TEWEN  =     57065.45584599
  -Hartree energ DENC   =    -89334.56969570
  -exchange      EXHF   =         0.00000000
  -V(xc)+E(xc)   XCENC  =     -2039.86745478
  PAW double counting   =     40163.51100147   -37204.59365029
  entropy T*S    EENTRO =        -0.01807283
  eigenvalues    EBANDS =       302.79289375
  atomic energy  EATOM  =     29401.96565168
  Solvation  Ediel_sol  =         0.00000000
  ---------------------------------------------------
  free energy    TOTEN  =      -577.52049218 eV

  energy without entropy =     -577.50241934  energy(sigma->0) =     -577.51145576


--------------------------------------------------------------------------------------------------------




--------------------------------------- Iteration      1(  17)  ---------------------------------------


    POTLOK:  cpu time      0.0701: real time      0.0750
    SETDIJ:  cpu time      0.0089: real time      0.0090
    EDDIAG:  cpu time      0.4180: real time      0.4224
  RMM-DIIS:  cpu time      1.2926: real time      1.2994
    ORTHCH:  cpu time      0.1114: real time      0.1121
       DOS:  cpu time      0.0014: real time      0.0014
    CHARGE:  cpu time      0.1161: real time      0.1167
    MIXING:  cpu time      0.0024: real time      0.0024
    --------------------------------------------
      LOOP:  cpu time      2.0209: real time      2.0383

 eigenvalue-minimisations  :   737
 total energy-change (2. order) : 0.2134249E-01  (-0.1858661E-01)
 number of electron     518.9999648 magnetization 
 augmentation part      175.8736300 magnetization 

 Broyden mixing:
  rms(total) = 0.27899E+00    rms(broyden)= 0.27898E+00
  rms(prec ) = 0.38714E+00
  weight for this iteration     100.00

 eigenvalues of (default mixing * dielectric matrix)
  average eigenvalue GAMMA=   0.6021
  1.7007  1.7007  1.4156  0.5629  0.5629  0.3009  0.2280  0.2280  0.1629  0.1408
  0.1080  0.1132

 Free energy of the ion-electron system (eV)
  ---------------------------------------------------
  alpha Z        PSCENC =      1067.80298853
  Ewald energy   TEWEN  =     57065.45584599
  -Hartree energ DENC   =    -89346.89684108
  -exchange      EXHF   =         0.00000000
  -V(xc)+E(xc)   XCENC  =     -2039.74610724
  PAW double counting   =     40268.18407686   -37310.75506475
  entropy T*S    EENTRO =        -0.02193771
  eigenvalues    EBANDS =       316.51223802
  atomic energy  EATOM  =     29401.96565168
  Solvation  Ediel_sol  =         0.00000000
  ---------------------------------------------------
  free energy    TOTEN  =      -577.49914969 eV

  energy without entropy =     -577.47721198  energy(sigma->0) =     -577.48818083


--------------------------------------------------------------------------------------------------------




--------------------------------------- Iteration      1(  18)  ---------------------------------------


    POTLOK:  cpu time      0.0669: real time      0.0711
    SETDIJ:  cpu time      0.0088: real time      0.0089
    EDDIAG:  cpu time      0.4089: real time      0.4112
  RMM-DIIS:  cpu time      1.2044: real time      1.2110
    ORTHCH:  cpu time      0.1145: real time      0.1152
       DOS:  cpu time      0.0014: real time      0.0014
    CHARGE:  cpu time      0.1159: real time      0.1166
    MIXING:  cpu time      0.0025: real time      0.0025
    --------------------------------------------
      LOOP:  cpu time      1.9233: real time      1.9380

 eigenvalue-minimisations  :   726
 total energy-change (2. order) : 0.4376278E-01  (-0.1605990E-01)
 number of electron     518.9999648 magnetization 
 augmentation part      175.9681849 magnetization 

 Broyden mixing:
  rms(total) = 0.19908E+00    rms(broyden)= 0.19907E+00
  rms(prec ) = 0.27542E+00
  weight for this iteration     100.00

 eigenvalues of (default mixing * dielectric matrix)
  average eigenvalue GAMMA=   0.5911
  1.7487  1.7487  1.4145  0.5790  0.5790  0.4262  0.2440  0.2440  0.1886  0.1569
  0.1366  0.1080  0.1099

 Free energy of the ion-electron system (eV)
  ---------------------------------------------------
  alpha Z        PSCENC =      1067.80298853
  Ewald energy   TEWEN  =     57065.45584599
  -Hartree energ DENC   =    -89358.44456365
  -exchange      EXHF   =         0.00000000
  -V(xc)+E(xc)   XCENC  =     -2039.62499728
  PAW double counting   =     40371.83874517   -37415.92274555
  entropy T*S    EENTRO =        -0.01804845
  eigenvalues    EBANDS =       329.49173664
  atomic energy  EATOM  =     29401.96565168
  Solvation  Ediel_sol  =         0.00000000
  ---------------------------------------------------
  free energy    TOTEN  =      -577.45538691 eV

  energy without entropy =     -577.43733847  energy(sigma->0) =     -577.44636269


--------------------------------------------------------------------------------------------------------




--------------------------------------- Iteration      1(  19)  ---------------------------------------


    POTLOK:  cpu time      0.0817: real time      0.0856
    SETDIJ:  cpu time      0.0084: real time      0.0084
    EDDIAG:  cpu time      0.3995: real time      0.4019
  RMM-DIIS:  cpu time      1.0828: real time      1.0881
    ORTHCH:  cpu time      0.1008: real time      0.1013
       DOS:  cpu time      0.0016: real time      0.0016
    CHARGE:  cpu time      0.1211: real time      0.1217
    MIXING:  cpu time      0.0028: real time      0.0028
    --------------------------------------------
      LOOP:  cpu time      1.7987: real time      1.8113

 eigenvalue-minimisations  :   690
 total energy-change (2. order) : 0.2925339E-01  (-0.8420035E-02)
 number of electron     518.9999648 magnetization 
 augmentation part      175.9814326 magnetization 

 Broyden mixing:
  rms(total) = 0.13867E+00    rms(broyden)= 0.13867E+00
  rms(prec ) = 0.19703E+00
  weight for this iteration     100.00

 eigenvalues of (default mixing * dielectric matrix)
  average eigenvalue GAMMA=   0.5838
  1.7767  1.7767  1.3818  0.6479  0.6479  0.5357  0.2572  0.2572  0.2170  0.1689
  0.1617  0.1268  0.1081  0.1089

 Free energy of the ion-electron system (eV)
  ---------------------------------------------------
  alpha Z        PSCENC =      1067.80298853
  Ewald energy   TEWEN  =     57065.45584599
  -Hartree energ DENC   =    -89365.16265868
  -exchange      EXHF   =         0.00000000
  -V(xc)+E(xc)   XCENC  =     -2039.55443044
  PAW double counting   =     40428.27690836   -37473.19388333
  entropy T*S    EENTRO =        -0.02111098
  eigenvalues    EBANDS =       337.00455535
  atomic energy  EATOM  =     29401.96565168
  Solvation  Ediel_sol  =         0.00000000
  ---------------------------------------------------
  free energy    TOTEN  =      -577.42613352 eV

  energy without entropy =     -577.40502254  energy(sigma->0) =     -577.41557803


--------------------------------------------------------------------------------------------------------




--------------------------------------- Iteration      1(  20)  ---------------------------------------


    POTLOK:  cpu time      0.0591: real time      0.0598
    SETDIJ:  cpu time      0.0085: real time      0.0086
    EDDIAG:  cpu time      0.4202: real time      0.4225
  RMM-DIIS:  cpu time      1.2623: real time      1.2684
    ORTHCH:  cpu time      0.1187: real time      0.1193
       DOS:  cpu time      0.0015: real time      0.0015
    CHARGE:  cpu time      0.1204: real time      0.1210
    MIXING:  cpu time      0.0031: real time      0.0031
    --------------------------------------------
      LOOP:  cpu time      1.9940: real time      2.0041

 eigenvalue-minimisations  :   715
 total energy-change (2. order) : 0.5710562E-02  (-0.4763015E-02)
 number of electron     518.9999649 magnetization 
 augmentation part      175.8606054 magnetization 

 Broyden mixing:
  rms(total) = 0.13414E+00    rms(broyden)= 0.13414E+00
  rms(prec ) = 0.17963E+00
  weight for this iteration     100.00

 eigenvalues of (default mixing * dielectric matrix)
  average eigenvalue GAMMA=   0.5787
  1.7781  1.7781  1.4194  0.7795  0.7795  0.5368  0.3029  0.2435  0.2345  0.1921
  0.1602  0.1401  0.1080  0.1230  0.1051

 Free energy of the ion-electron system (eV)
  ---------------------------------------------------
  alpha Z        PSCENC =      1067.80298853
  Ewald energy   TEWEN  =     57065.45584599
  -Hartree energ DENC   =    -89370.49085539
  -exchange      EXHF   =         0.00000000
  -V(xc)+E(xc)   XCENC  =     -2039.50116614
  PAW double counting   =     40463.07699090   -37508.51433175
  entropy T*S    EENTRO =        -0.02144757
  eigenvalues    EBANDS =       342.80590079
  atomic energy  EATOM  =     29401.96565168
  Solvation  Ediel_sol  =         0.00000000
  ---------------------------------------------------
  free energy    TOTEN  =      -577.42042295 eV

  energy without entropy =     -577.39897539  energy(sigma->0) =     -577.40969917


--------------------------------------------------------------------------------------------------------




--------------------------------------- Iteration      1(  21)  ---------------------------------------


    POTLOK:  cpu time      0.0545: real time      0.0586
    SETDIJ:  cpu time      0.0088: real time      0.0088
    EDDIAG:  cpu time      0.4237: real time      0.4259
  RMM-DIIS:  cpu time      1.1362: real time      1.1416
    ORTHCH:  cpu time      0.1144: real time      0.1150
       DOS:  cpu time      0.0016: real time      0.0016
    CHARGE:  cpu time      0.1287: real time      0.1294
    MIXING:  cpu time      0.0030: real time      0.0030
    --------------------------------------------
      LOOP:  cpu time      1.8709: real time      1.8839

 eigenvalue-minimisations  :   644
 total energy-change (2. order) : 0.1180977E-01  (-0.1935240E-02)
 number of electron     518.9999648 magnetization 
 augmentation part      175.9432928 magnetization 

 Broyden mixing:
  rms(total) = 0.84952E-01    rms(broyden)= 0.84949E-01
  rms(prec ) = 0.10950E+00
  weight for this iteration     100.00

 eigenvalues of (default mixing * dielectric matrix)
  average eigenvalue GAMMA=   0.5713
  1.8147  1.8147  1.4349  0.8340  0.8340  0.5160  0.3369  0.2867  0.2333  0.2333
  0.1750  0.1586  0.1439  0.1080  0.1145  0.1030

 Free energy of the ion-electron system (eV)
  ---------------------------------------------------
  alpha Z        PSCENC =      1067.80298853
  Ewald energy   TEWEN  =     57065.45584599
  -Hartree energ DENC   =    -89374.12834938
  -exchange      EXHF   =         0.00000000
  -V(xc)+E(xc)   XCENC  =     -2039.46454250
  PAW double counting   =     40483.69602467   -37529.53331131
  entropy T*S    EENTRO =        -0.02094207
  eigenvalues    EBANDS =       346.81802121
  atomic energy  EATOM  =     29401.96565168
  Solvation  Ediel_sol  =         0.00000000
  ---------------------------------------------------
  free energy    TOTEN  =      -577.40861319 eV

  energy without entropy =     -577.38767111  energy(sigma->0) =     -577.39814215


--------------------------------------------------------------------------------------------------------




--------------------------------------- Iteration      1(  22)  ---------------------------------------


    POTLOK:  cpu time      0.0690: real time      0.0697
    SETDIJ:  cpu time      0.0091: real time      0.0091
    EDDIAG:  cpu time      0.4344: real time      0.4368
  RMM-DIIS:  cpu time      1.2562: real time      1.2625
    ORTHCH:  cpu time      0.1236: real time      0.1242
       DOS:  cpu time      0.0017: real time      0.0017
    CHARGE:  cpu time      0.1257: real time      0.1262
    MIXING:  cpu time      0.0066: real time      0.0067
    --------------------------------------------
      LOOP:  cpu time      2.0262: real time      2.0369

 eigenvalue-minimisations  :   707
 total energy-change (2. order) : 0.4418094E-02  (-0.1217986E-02)
 number of electron     518.9999648 magnetization 
 augmentation part      175.9508082 magnetization 

 Broyden mixing:
  rms(total) = 0.56199E-01    rms(broyden)= 0.56197E-01
  rms(prec ) = 0.73517E-01
  weight for this iteration     100.00

 eigenvalues of (default mixing * dielectric matrix)
  average eigenvalue GAMMA=   0.5936
  1.9461  1.9461  1.4579  0.9557  0.9557  0.5275  0.5275  0.3154  0.2395  0.2395
  0.1952  0.1705  0.1551  0.1366  0.1080  0.1144  0.1015

 Free energy of the ion-electron system (eV)
  ---------------------------------------------------
  alpha Z        PSCENC =      1067.80298853
  Ewald energy   TEWEN  =     57065.45584599
  -Hartree energ DENC   =    -89377.04783603
  -exchange      EXHF   =         0.00000000
  -V(xc)+E(xc)   XCENC  =     -2039.44460217
  PAW double counting   =     40488.84389389   -37534.82650934
  entropy T*S    EENTRO =        -0.02414008
  eigenvalues    EBANDS =       349.87051243
  atomic energy  EATOM  =     29401.96565168
  Solvation  Ediel_sol  =         0.00000000
  ---------------------------------------------------
  free energy    TOTEN  =      -577.40419510 eV

  energy without entropy =     -577.38005502  energy(sigma->0) =     -577.39212506


--------------------------------------------------------------------------------------------------------




--------------------------------------- Iteration      1(  23)  ---------------------------------------


    POTLOK:  cpu time      0.0577: real time      0.0629
    SETDIJ:  cpu time      0.0084: real time      0.0085
    EDDIAG:  cpu time      0.4227: real time      0.4249
  RMM-DIIS:  cpu time      1.1919: real time      1.1984
    ORTHCH:  cpu time      0.1244: real time      0.1250
       DOS:  cpu time      0.0018: real time      0.0018
    CHARGE:  cpu time      0.1242: real time      0.1248
    MIXING:  cpu time      0.0059: real time      0.0060
    --------------------------------------------
      LOOP:  cpu time      1.9369: real time      1.9522

 eigenvalue-minimisations  :   705
 total energy-change (2. order) : 0.9879743E-03  (-0.9703332E-03)
 number of electron     518.9999648 magnetization 
 augmentation part      176.0160718 magnetization 

 Broyden mixing:
  rms(total) = 0.59111E-01    rms(broyden)= 0.59110E-01
  rms(prec ) = 0.79593E-01
  weight for this iteration     100.00

 eigenvalues of (default mixing * dielectric matrix)
  average eigenvalue GAMMA=   0.5978
  2.0700  2.0700  1.3620  1.0452  1.0452  0.5724  0.5724  0.3416  0.2567  0.2567
  0.2213  0.1900  0.1616  0.1438  0.1316  0.1080  0.1122  0.1001

 Free energy of the ion-electron system (eV)
  ---------------------------------------------------
  alpha Z        PSCENC =      1067.80298853
  Ewald energy   TEWEN  =     57065.45584599
  -Hartree energ DENC   =    -89381.85007085
  -exchange      EXHF   =         0.00000000
  -V(xc)+E(xc)   XCENC  =     -2039.41637851
  PAW double counting   =     40491.97924989   -37538.12177048
  entropy T*S    EENTRO =        -0.02236675
  eigenvalues    EBANDS =       354.80364337
  atomic energy  EATOM  =     29401.96565168
  Solvation  Ediel_sol  =         0.00000000
  ---------------------------------------------------
  free energy    TOTEN  =      -577.40320712 eV

  energy without entropy =     -577.38084038  energy(sigma->0) =     -577.39202375


--------------------------------------------------------------------------------------------------------




--------------------------------------- Iteration      1(  24)  ---------------------------------------


    POTLOK:  cpu time      0.0700: real time      0.0708
    SETDIJ:  cpu time      0.0090: real time      0.0090
    EDDIAG:  cpu time      0.4392: real time      0.4417
  RMM-DIIS:  cpu time      1.1593: real time      1.1646
    ORTHCH:  cpu time      0.1134: real time      0.1139
       DOS:  cpu time      0.0015: real time      0.0015
    CHARGE:  cpu time      0.1255: real time      0.1261
    MIXING:  cpu time      0.0034: real time      0.0034
    --------------------------------------------
      LOOP:  cpu time      1.9212: real time      1.9310

 eigenvalue-minimisations  :   682
 total energy-change (2. order) : 0.2082535E-02  (-0.5635981E-03)
 number of electron     518.9999648 magnetization 
 augmentation part      175.9434548 magnetization 

 Broyden mixing:
  rms(total) = 0.45075E-01    rms(broyden)= 0.45074E-01
  rms(prec ) = 0.59790E-01
  weight for this iteration     100.00

 eigenvalues of (default mixing * dielectric matrix)
  average eigenvalue GAMMA=   0.5901
  2.1374  2.1374  1.2266  1.1196  1.1196  0.5847  0.5847  0.4189  0.2989  0.2404
  0.2404  0.1996  0.1695  0.1555  0.1434  0.1204  0.1081  0.1090  0.0982

 Free energy of the ion-electron system (eV)
  ---------------------------------------------------
  alpha Z        PSCENC =      1067.80298853
  Ewald energy   TEWEN  =     57065.45584599
  -Hartree energ DENC   =    -89387.13736646
  -exchange      EXHF   =         0.00000000
  -V(xc)+E(xc)   XCENC  =     -2039.38529701
  PAW double counting   =     40494.94431896   -37541.19983802
  entropy T*S    EENTRO =        -0.02438192
  eigenvalues    EBANDS =       360.17695366
  atomic energy  EATOM  =     29401.96565168
  Solvation  Ediel_sol  =         0.00000000
  ---------------------------------------------------
  free energy    TOTEN  =      -577.40112459 eV

  energy without entropy =     -577.37674266  energy(sigma->0) =     -577.38893362


--------------------------------------------------------------------------------------------------------




--------------------------------------- Iteration      1(  25)  ---------------------------------------


    POTLOK:  cpu time      0.0560: real time      0.0607
    SETDIJ:  cpu time      0.0088: real time      0.0088
    EDDIAG:  cpu time      0.4229: real time      0.4255
  RMM-DIIS:  cpu time      1.1592: real time      1.1656
    ORTHCH:  cpu time      0.1061: real time      0.1066
       DOS:  cpu time      0.0016: real time      0.0016
    CHARGE:  cpu time      0.1232: real time      0.1237
    MIXING:  cpu time      0.0037: real time      0.0037
    --------------------------------------------
      LOOP:  cpu time      1.8813: real time      1.8961

 eigenvalue-minimisations  :   698
 total energy-change (2. order) : 0.2358541E-03  (-0.3408336E-03)
 number of electron     518.9999648 magnetization 
 augmentation part      175.9494002 magnetization 

 Broyden mixing:
  rms(total) = 0.40189E-01    rms(broyden)= 0.40188E-01
  rms(prec ) = 0.52967E-01
  weight for this iteration     100.00

 eigenvalues of (default mixing * dielectric matrix)
  average eigenvalue GAMMA=   0.5970
  2.1790  2.1790  1.3181  1.3181  0.9137  0.7076  0.7076  0.5451  0.3182  0.2469
  0.2469  0.2162  0.1819  0.1624  0.1466  0.1321  0.1080  0.1141  0.1032  0.0943

 Free energy of the ion-electron system (eV)
  ---------------------------------------------------
  alpha Z        PSCENC =      1067.80298853
  Ewald energy   TEWEN  =     57065.45584599
  -Hartree energ DENC   =    -89389.33574397
  -exchange      EXHF   =         0.00000000
  -V(xc)+E(xc)   XCENC  =     -2039.37296278
  PAW double counting   =     40494.98417550   -37541.28075881
  entropy T*S    EENTRO =        -0.02429913
  eigenvalues    EBANDS =       362.40421425
  atomic energy  EATOM  =     29401.96565168
  Solvation  Ediel_sol  =         0.00000000
  ---------------------------------------------------
  free energy    TOTEN  =      -577.40088873 eV

  energy without entropy =     -577.37658960  energy(sigma->0) =     -577.38873917


--------------------------------------------------------------------------------------------------------




--------------------------------------- Iteration      1(  26)  ---------------------------------------


    POTLOK:  cpu time      0.0614: real time      0.0621
    SETDIJ:  cpu time      0.0086: real time      0.0087
    EDDIAG:  cpu time      0.4258: real time      0.4278
  RMM-DIIS:  cpu time      1.2457: real time      1.2514
    ORTHCH:  cpu time      0.1115: real time      0.1121
       DOS:  cpu time      0.0015: real time      0.0015
    CHARGE:  cpu time      0.1244: real time      0.1250
    MIXING:  cpu time      0.0035: real time      0.0035
    --------------------------------------------
      LOOP:  cpu time      1.9826: real time      1.9922

 eigenvalue-minimisations  :   697
 total energy-change (2. order) :-0.4453777E-03  (-0.2740565E-03)
 number of electron     518.9999648 magnetization 
 augmentation part      175.9552101 magnetization 

 Broyden mixing:
  rms(total) = 0.37503E-01    rms(broyden)= 0.37502E-01
  rms(prec ) = 0.48946E-01
  weight for this iteration     100.00

 eigenvalues of (default mixing * dielectric matrix)
  average eigenvalue GAMMA=   0.5995
  2.2590  2.2590  1.4191  1.4191  0.8261  0.8261  0.7572  0.5606  0.3231  0.2536
  0.2536  0.2180  0.1957  0.1761  0.1622  0.1430  0.1288  0.1080  0.1126  0.1011
  0.0876

 Free energy of the ion-electron system (eV)
  ---------------------------------------------------
  alpha Z        PSCENC =      1067.80298853
  Ewald energy   TEWEN  =     57065.45584599
  -Hartree energ DENC   =    -89392.15006142
  -exchange      EXHF   =         0.00000000
  -V(xc)+E(xc)   XCENC  =     -2039.35795833
  PAW double counting   =     40494.92195664   -37541.27338763
  entropy T*S    EENTRO =        -0.02414857
  eigenvalues    EBANDS =       365.25777899
  atomic energy  EATOM  =     29401.96565168
  Solvation  Ediel_sol  =         0.00000000
  ---------------------------------------------------
  free energy    TOTEN  =      -577.40133411 eV

  energy without entropy =     -577.37718554  energy(sigma->0) =     -577.38925982


--------------------------------------------------------------------------------------------------------




--------------------------------------- Iteration      1(  27)  ---------------------------------------


    POTLOK:  cpu time      0.0598: real time      0.0606
    SETDIJ:  cpu time      0.0086: real time      0.0086
    EDDIAG:  cpu time      0.4175: real time      0.4196
  RMM-DIIS:  cpu time      1.1398: real time      1.1452
    ORTHCH:  cpu time      0.1030: real time      0.1035
       DOS:  cpu time      0.0015: real time      0.0015
    CHARGE:  cpu time      0.1204: real time      0.1210
    MIXING:  cpu time      0.0038: real time      0.0038
    --------------------------------------------
      LOOP:  cpu time      1.8543: real time      1.8639

 eigenvalue-minimisations  :   661
 total energy-change (2. order) :-0.2855985E-04  (-0.1581217E-03)
 number of electron     518.9999648 magnetization 
 augmentation part      175.9480228 magnetization 

 Broyden mixing:
  rms(total) = 0.27278E-01    rms(broyden)= 0.27277E-01
  rms(prec ) = 0.36060E-01
  weight for this iteration     100.00

 eigenvalues of (default mixing * dielectric matrix)
  average eigenvalue GAMMA=   0.5949
  2.3382  2.3382  1.4334  1.4334  0.8524  0.8524  0.7800  0.5502  0.3208  0.2821
  0.2821  0.2281  0.2281  0.1850  0.1635  0.1482  0.1434  0.1230  0.1080  0.1116
  0.1004  0.0858

 Free energy of the ion-electron system (eV)
  ---------------------------------------------------
  alpha Z        PSCENC =      1067.80298853
  Ewald energy   TEWEN  =     57065.45584599
  -Hartree energ DENC   =    -89395.06213402
  -exchange      EXHF   =         0.00000000
  -V(xc)+E(xc)   XCENC  =     -2039.34381759
  PAW double counting   =     40493.42831878   -37539.81477801
  entropy T*S    EENTRO =        -0.02451540
  eigenvalues    EBANDS =       368.19107736
  atomic energy  EATOM  =     29401.96565168
  Solvation  Ediel_sol  =         0.00000000
  ---------------------------------------------------
  free energy    TOTEN  =      -577.40136267 eV

  energy without entropy =     -577.37684727  energy(sigma->0) =     -577.38910497


--------------------------------------------------------------------------------------------------------




--------------------------------------- Iteration      1(  28)  ---------------------------------------


    POTLOK:  cpu time      0.0695: real time      0.0703
    SETDIJ:  cpu time      0.0086: real time      0.0086
    EDDIAG:  cpu time      0.4176: real time      0.4198
  RMM-DIIS:  cpu time      1.0856: real time      1.0908
    ORTHCH:  cpu time      0.1098: real time      0.1103
       DOS:  cpu time      0.0015: real time      0.0015
    CHARGE:  cpu time      0.1174: real time      0.1179
    MIXING:  cpu time      0.0039: real time      0.0039
    --------------------------------------------
      LOOP:  cpu time      1.8139: real time      1.8232

 eigenvalue-minimisations  :   665
 total energy-change (2. order) :-0.3543645E-03  (-0.1010150E-03)
 number of electron     518.9999648 magnetization 
 augmentation part      175.9556419 magnetization 

 Broyden mixing:
  rms(total) = 0.22523E-01    rms(broyden)= 0.22522E-01
  rms(prec ) = 0.30243E-01
  weight for this iteration     100.00

 eigenvalues of (default mixing * dielectric matrix)
  average eigenvalue GAMMA=   0.5960
  2.4413  2.4413  1.4106  1.4106  0.9091  0.8475  0.8475  0.4975  0.4975  0.3330
  0.2688  0.2379  0.2379  0.1954  0.1752  0.1611  0.1457  0.1324  0.1169  0.1080
  0.1092  0.0996  0.0838

 Free energy of the ion-electron system (eV)
  ---------------------------------------------------
  alpha Z        PSCENC =      1067.80298853
  Ewald energy   TEWEN  =     57065.45584599
  -Hartree energ DENC   =    -89397.00575443
  -exchange      EXHF   =         0.00000000
  -V(xc)+E(xc)   XCENC  =     -2039.33604476
  PAW double counting   =     40491.04706331   -37537.43820893
  entropy T*S    EENTRO =        -0.02461270
  eigenvalues    EBANDS =       370.13135427
  atomic energy  EATOM  =     29401.96565168
  Solvation  Ediel_sol  =         0.00000000
  ---------------------------------------------------
  free energy    TOTEN  =      -577.40171703 eV

  energy without entropy =     -577.37710433  energy(sigma->0) =     -577.38941068


--------------------------------------------------------------------------------------------------------




--------------------------------------- Iteration      1(  29)  ---------------------------------------


    POTLOK:  cpu time      0.0641: real time      0.0694
    SETDIJ:  cpu time      0.0086: real time      0.0087
    EDDIAG:  cpu time      0.4032: real time      0.4052
  RMM-DIIS:  cpu time      1.2464: real time      1.2517
    ORTHCH:  cpu time      0.1037: real time      0.1041
       DOS:  cpu time      0.0017: real time      0.0017
    CHARGE:  cpu time      0.1235: real time      0.1241
    MIXING:  cpu time      0.0042: real time      0.0042
    --------------------------------------------
      LOOP:  cpu time      1.9554: real time      1.9691

 eigenvalue-minimisations  :   712
 total energy-change (2. order) :-0.1030366E-02  (-0.1074243E-03)
 number of electron     518.9999648 magnetization 
 augmentation part      175.9699392 magnetization 

 Broyden mixing:
  rms(total) = 0.22788E-01    rms(broyden)= 0.22787E-01
  rms(prec ) = 0.31036E-01
  weight for this iteration     100.00

 eigenvalues of (default mixing * dielectric matrix)
  average eigenvalue GAMMA=   0.6218
  2.6781  2.6781  1.3935  1.3935  1.2715  0.8566  0.8566  0.5998  0.5998  0.3310
  0.2647  0.2647  0.2258  0.2258  0.1847  0.1660  0.1559  0.1435  0.1282  0.1080
  0.1133  0.1037  0.0977  0.0827

 Free energy of the ion-electron system (eV)
  ---------------------------------------------------
  alpha Z        PSCENC =      1067.80298853
  Ewald energy   TEWEN  =     57065.45584599
  -Hartree energ DENC   =    -89399.32460275
  -exchange      EXHF   =         0.00000000
  -V(xc)+E(xc)   XCENC  =     -2039.32782469
  PAW double counting   =     40487.73063126   -37534.11507507
  entropy T*S    EENTRO =        -0.02444298
  eigenvalues    EBANDS =       372.43408063
  atomic energy  EATOM  =     29401.96565168
  Solvation  Ediel_sol  =         0.00000000
  ---------------------------------------------------
  free energy    TOTEN  =      -577.40274740 eV

  energy without entropy =     -577.37830442  energy(sigma->0) =     -577.39052591


--------------------------------------------------------------------------------------------------------




--------------------------------------- Iteration      1(  30)  ---------------------------------------


    POTLOK:  cpu time      0.0609: real time      0.0616
    SETDIJ:  cpu time      0.0085: real time      0.0085
    EDDIAG:  cpu time      0.4264: real time      0.4283
  RMM-DIIS:  cpu time      1.2167: real time      1.2219
    ORTHCH:  cpu time      0.1075: real time      0.1080
       DOS:  cpu time      0.0042: real time      0.0042
    CHARGE:  cpu time      0.1269: real time      0.1274
    MIXING:  cpu time      0.0044: real time      0.0044
    --------------------------------------------
      LOOP:  cpu time      1.9555: real time      1.9645

 eigenvalue-minimisations  :   707
 total energy-change (2. order) :-0.1513389E-02  (-0.9249016E-04)
 number of electron     518.9999648 magnetization 
 augmentation part      175.9443731 magnetization 

 Broyden mixing:
  rms(total) = 0.15649E-01    rms(broyden)= 0.15649E-01
  rms(prec ) = 0.20951E-01
  weight for this iteration     100.00

 eigenvalues of (default mixing * dielectric matrix)
  average eigenvalue GAMMA=   0.6253
  2.8242  2.8242  1.4066  1.4066  1.4135  0.8641  0.8641  0.6084  0.6084  0.3291
  0.2848  0.2693  0.2356  0.2356  0.1939  0.1852  0.1620  0.1491  0.1423  0.1258
  0.1080  0.1127  0.1021  0.0957  0.0821

 Free energy of the ion-electron system (eV)
  ---------------------------------------------------
  alpha Z        PSCENC =      1067.80298853
  Ewald energy   TEWEN  =     57065.45584599
  -Hartree energ DENC   =    -89403.38455771
  -exchange      EXHF   =         0.00000000
  -V(xc)+E(xc)   XCENC  =     -2039.31266816
  PAW double counting   =     40483.11164272   -37529.48106389
  entropy T*S    EENTRO =        -0.02479725
  eigenvalues    EBANDS =       376.46269729
  atomic energy  EATOM  =     29401.96565168
  Solvation  Ediel_sol  =         0.00000000
  ---------------------------------------------------
  free energy    TOTEN  =      -577.40426079 eV

  energy without entropy =     -577.37946354  energy(sigma->0) =     -577.39186216


--------------------------------------------------------------------------------------------------------




--------------------------------------- Iteration      1(  31)  ---------------------------------------


    POTLOK:  cpu time      0.0609: real time      0.0617
    SETDIJ:  cpu time      0.0088: real time      0.0089
    EDDIAG:  cpu time      0.4315: real time      0.4335
  RMM-DIIS:  cpu time      1.1767: real time      1.1812
    ORTHCH:  cpu time      0.1299: real time      0.1306
       DOS:  cpu time      0.0020: real time      0.0020
    CHARGE:  cpu time      0.1288: real time      0.1295
    MIXING:  cpu time      0.0048: real time      0.0048
    --------------------------------------------
      LOOP:  cpu time      1.9434: real time      1.9522

 eigenvalue-minimisations  :   665
 total energy-change (2. order) :-0.8203879E-03  (-0.4266468E-04)
 number of electron     518.9999648 magnetization 
 augmentation part      175.9580562 magnetization 

 Broyden mixing:
  rms(total) = 0.14682E-01    rms(broyden)= 0.14682E-01
  rms(prec ) = 0.20098E-01
  weight for this iteration     100.00

 eigenvalues of (default mixing * dielectric matrix)
  average eigenvalue GAMMA=   0.6250
  2.9002  2.9002  1.4760  1.4362  1.4362  0.8872  0.8872  0.6106  0.6106  0.3545
  0.3545  0.2647  0.2461  0.2461  0.2148  0.1858  0.1658  0.1647  0.1457  0.1395
  0.1250  0.1080  0.1125  0.1019  0.0953  0.0820

 Free energy of the ion-electron system (eV)
  ---------------------------------------------------
  alpha Z        PSCENC =      1067.80298853
  Ewald energy   TEWEN  =     57065.45584599
  -Hartree energ DENC   =    -89405.05666179
  -exchange      EXHF   =         0.00000000
  -V(xc)+E(xc)   XCENC  =     -2039.30729361
  PAW double counting   =     40480.62006751   -37526.97891870
  entropy T*S    EENTRO =        -0.02482435
  eigenvalues    EBANDS =       378.11806355
  atomic energy  EATOM  =     29401.96565168
  Solvation  Ediel_sol  =         0.00000000
  ---------------------------------------------------
  free energy    TOTEN  =      -577.40508118 eV

  energy without entropy =     -577.38025682  energy(sigma->0) =     -577.39266900


--------------------------------------------------------------------------------------------------------




--------------------------------------- Iteration      1(  32)  ---------------------------------------


    POTLOK:  cpu time      0.0732: real time      0.0783
    SETDIJ:  cpu time      0.0092: real time      0.0092
    EDDIAG:  cpu time      0.4415: real time      0.4459
  RMM-DIIS:  cpu time      1.1734: real time      1.1796
    ORTHCH:  cpu time      0.1052: real time      0.1058
       DOS:  cpu time      0.0048: real time      0.0049
    CHARGE:  cpu time      0.1233: real time      0.1239
    MIXING:  cpu time      0.0049: real time      0.0049
    --------------------------------------------
      LOOP:  cpu time      1.9355: real time      1.9524

 eigenvalue-minimisations  :   671
 total energy-change (2. order) :-0.5394404E-03  (-0.2431149E-04)
 number of electron     518.9999648 magnetization 
 augmentation part      175.9422182 magnetization 

 Broyden mixing:
  rms(total) = 0.86903E-02    rms(broyden)= 0.86901E-02
  rms(prec ) = 0.12296E-01
  weight for this iteration     100.00

 eigenvalues of (default mixing * dielectric matrix)
  average eigenvalue GAMMA=   0.6391
  3.0444  3.0444  1.5727  1.4851  1.4851  0.9307  0.9307  0.6484  0.6484  0.5050
  0.3505  0.2693  0.2693  0.2400  0.2352  0.2093  0.1829  0.1636  0.1554  0.1434
  0.1292  0.1080  0.1167  0.1112  0.1012  0.0942  0.0819

 Free energy of the ion-electron system (eV)
  ---------------------------------------------------
  alpha Z        PSCENC =      1067.80298853
  Ewald energy   TEWEN  =     57065.45584599
  -Hartree energ DENC   =    -89405.90214072
  -exchange      EXHF   =         0.00000000
  -V(xc)+E(xc)   XCENC  =     -2039.30490523
  PAW double counting   =     40479.58586346   -37525.93633792
  entropy T*S    EENTRO =        -0.02487796
  eigenvalues    EBANDS =       378.95229154
  atomic energy  EATOM  =     29401.96565168
  Solvation  Ediel_sol  =         0.00000000
  ---------------------------------------------------
  free energy    TOTEN  =      -577.40562062 eV

  energy without entropy =     -577.38074266  energy(sigma->0) =     -577.39318164


--------------------------------------------------------------------------------------------------------




--------------------------------------- Iteration      1(  33)  ---------------------------------------


    POTLOK:  cpu time      0.0583: real time      0.0631
    SETDIJ:  cpu time      0.0091: real time      0.0092
    EDDIAG:  cpu time      0.4342: real time      0.4378
  RMM-DIIS:  cpu time      1.2419: real time      1.2480
    ORTHCH:  cpu time      0.1002: real time      0.1006
       DOS:  cpu time      0.0015: real time      0.0015
    CHARGE:  cpu time      0.1198: real time      0.1204
    MIXING:  cpu time      0.0049: real time      0.0049
    --------------------------------------------
      LOOP:  cpu time      1.9699: real time      1.9855

 eigenvalue-minimisations  :   699
 total energy-change (2. order) :-0.8246558E-03  (-0.2604257E-04)
 number of electron     518.9999648 magnetization 
 augmentation part      175.9557393 magnetization 

 Broyden mixing:
  rms(total) = 0.93307E-02    rms(broyden)= 0.93305E-02
  rms(prec ) = 0.12250E-01
  weight for this iteration     100.00

 eigenvalues of (default mixing * dielectric matrix)
  average eigenvalue GAMMA=   0.6568
  3.3933  3.1237  1.7197  1.5144  1.5144  0.9814  0.9814  0.7054  0.7054  0.5432
  0.3496  0.2931  0.2931  0.2428  0.2428  0.2158  0.1895  0.1828  0.1634  0.1531
  0.1431  0.1278  0.1080  0.1151  0.1106  0.1012  0.0941  0.0819

 Free energy of the ion-electron system (eV)
  ---------------------------------------------------
  alpha Z        PSCENC =      1067.80298853
  Ewald energy   TEWEN  =     57065.45584599
  -Hartree energ DENC   =    -89406.82486276
  -exchange      EXHF   =         0.00000000
  -V(xc)+E(xc)   XCENC  =     -2039.30322309
  PAW double counting   =     40478.20087974   -37524.54402803
  entropy T*S    EENTRO =        -0.02487199
  eigenvalues    EBANDS =       379.86517465
  atomic energy  EATOM  =     29401.96565168
  Solvation  Ediel_sol  =         0.00000000
  ---------------------------------------------------
  free energy    TOTEN  =      -577.40644527 eV

  energy without entropy =     -577.38157328  energy(sigma->0) =     -577.39400928


--------------------------------------------------------------------------------------------------------




--------------------------------------- Iteration      1(  34)  ---------------------------------------


    POTLOK:  cpu time      0.0729: real time      0.0737
    SETDIJ:  cpu time      0.0109: real time      0.0110
    EDDIAG:  cpu time      0.4167: real time      0.4197
  RMM-DIIS:  cpu time      1.0435: real time      1.0479
    ORTHCH:  cpu time      0.1033: real time      0.1037
       DOS:  cpu time      0.0015: real time      0.0015
    CHARGE:  cpu time      0.1175: real time      0.1180
    MIXING:  cpu time      0.0051: real time      0.0051
    --------------------------------------------
      LOOP:  cpu time      1.7714: real time      1.7805

 eigenvalue-minimisations  :   656
 total energy-change (2. order) :-0.4089485E-03  (-0.1481647E-04)
 number of electron     518.9999648 magnetization 
 augmentation part      175.9458755 magnetization 

 Broyden mixing:
  rms(total) = 0.60386E-02    rms(broyden)= 0.60384E-02
  rms(prec ) = 0.81510E-02
  weight for this iteration     100.00

 eigenvalues of (default mixing * dielectric matrix)
  average eigenvalue GAMMA=   0.6741
  4.2885  2.6952  1.7761  1.5399  1.5399  0.9607  0.9607  0.7831  0.7831  0.5362
  0.5362  0.3495  0.3110  0.2545  0.2545  0.2221  0.2177  0.1835  0.1688  0.1609
  0.1500  0.1421  0.1272  0.1140  0.1080  0.1093  0.1010  0.0939  0.0819

 Free energy of the ion-electron system (eV)
  ---------------------------------------------------
  alpha Z        PSCENC =      1067.80298853
  Ewald energy   TEWEN  =     57065.45584599
  -Hartree energ DENC   =    -89407.66892943
  -exchange      EXHF   =         0.00000000
  -V(xc)+E(xc)   XCENC  =     -2039.30126779
  PAW double counting   =     40477.63525045   -37523.97456427
  entropy T*S    EENTRO =        -0.02482906
  eigenvalues    EBANDS =       380.70299968
  atomic energy  EATOM  =     29401.96565168
  Solvation  Ediel_sol  =         0.00000000
  ---------------------------------------------------
  free energy    TOTEN  =      -577.40685422 eV

  energy without entropy =     -577.38202516  energy(sigma->0) =     -577.39443969


--------------------------------------------------------------------------------------------------------




--------------------------------------- Iteration      1(  35)  ---------------------------------------


    POTLOK:  cpu time      0.0693: real time      0.0699
    SETDIJ:  cpu time      0.0085: real time      0.0086
    EDDIAG:  cpu time      0.4015: real time      0.4042
  RMM-DIIS:  cpu time      0.9436: real time      0.9475
    ORTHCH:  cpu time      0.1107: real time      0.1112
       DOS:  cpu time      0.0015: real time      0.0015
    CHARGE:  cpu time      0.1142: real time      0.1146
    MIXING:  cpu time      0.0056: real time      0.0057
    --------------------------------------------
      LOOP:  cpu time      1.6549: real time      1.6631

 eigenvalue-minimisations  :   587
 total energy-change (2. order) :-0.1900225E-03  (-0.7055266E-05)
 number of electron     518.9999648 magnetization 
 augmentation part      175.9493503 magnetization 

 Broyden mixing:
  rms(total) = 0.45369E-02    rms(broyden)= 0.45368E-02
  rms(prec ) = 0.58725E-02
  weight for this iteration     100.00

 eigenvalues of (default mixing * dielectric matrix)
  average eigenvalue GAMMA=   0.6850
  4.6979  2.5849  1.8409  1.8409  1.2402  1.2402  0.9120  0.9120  0.6514  0.6514
  0.6076  0.3553  0.3094  0.2551  0.2551  0.2371  0.2211  0.2060  0.1813  0.1669
  0.1578  0.1480  0.1415  0.1270  0.1139  0.1080  0.1091  0.1010  0.0939  0.0819

 Free energy of the ion-electron system (eV)
  ---------------------------------------------------
  alpha Z        PSCENC =      1067.80298853
  Ewald energy   TEWEN  =     57065.45584599
  -Hartree energ DENC   =    -89408.35701311
  -exchange      EXHF   =         0.00000000
  -V(xc)+E(xc)   XCENC  =     -2039.29937473
  PAW double counting   =     40477.73381033   -37524.07877291
  entropy T*S    EENTRO =        -0.02494711
  eigenvalues    EBANDS =       381.39476708
  atomic energy  EATOM  =     29401.96565168
  Solvation  Ediel_sol  =         0.00000000
  ---------------------------------------------------
  free energy    TOTEN  =      -577.40704424 eV

  energy without entropy =     -577.38209714  energy(sigma->0) =     -577.39457069


--------------------------------------------------------------------------------------------------------




--------------------------------------- Iteration      1(  36)  ---------------------------------------


    POTLOK:  cpu time      0.0529: real time      0.0579
    SETDIJ:  cpu time      0.0084: real time      0.0085
    EDDIAG:  cpu time      0.4019: real time      0.4037
  RMM-DIIS:  cpu time      0.8595: real time      0.8629
    ORTHCH:  cpu time      0.0988: real time      0.0992
       DOS:  cpu time      0.0014: real time      0.0014
    CHARGE:  cpu time      0.1175: real time      0.1180
    MIXING:  cpu time      0.0057: real time      0.0057
    --------------------------------------------
      LOOP:  cpu time      1.5462: real time      1.5573

 eigenvalue-minimisations  :   443
 total energy-change (2. order) :-0.1236687E-03  (-0.3191792E-05)
 number of electron     518.9999648 magnetization 
 augmentation part      175.9472850 magnetization 

 Broyden mixing:
  rms(total) = 0.25315E-02    rms(broyden)= 0.25314E-02
  rms(prec ) = 0.33596E-02
  weight for this iteration     100.00

 eigenvalues of (default mixing * dielectric matrix)
  average eigenvalue GAMMA=   0.6991
  5.1173  2.5744  1.9428  1.9428  1.2891  1.2891  0.9076  0.9076  0.6952  0.6952
  0.5812  0.4193  0.3234  0.3143  0.2580  0.2580  0.2247  0.2192  0.1884  0.1808
  0.1653  0.1569  0.1464  0.1405  0.1268  0.1138  0.1080  0.1090  0.1010  0.0939
  0.0819

 Free energy of the ion-electron system (eV)
  ---------------------------------------------------
  alpha Z        PSCENC =      1067.80298853
  Ewald energy   TEWEN  =     57065.45584599
  -Hartree energ DENC   =    -89408.78755118
  -exchange      EXHF   =         0.00000000
  -V(xc)+E(xc)   XCENC  =     -2039.29851670
  PAW double counting   =     40477.81428254   -37524.16133143
  entropy T*S    EENTRO =        -0.02491155
  eigenvalues    EBANDS =       381.82637422
  atomic energy  EATOM  =     29401.96565168
  Solvation  Ediel_sol  =         0.00000000
  ---------------------------------------------------
  free energy    TOTEN  =      -577.40716791 eV

  energy without entropy =     -577.38225636  energy(sigma->0) =     -577.39471214


--------------------------------------------------------------------------------------------------------




--------------------------------------- Iteration      1(  37)  ---------------------------------------


    POTLOK:  cpu time      0.0592: real time      0.0598
    SETDIJ:  cpu time      0.0085: real time      0.0085
    EDDIAG:  cpu time      0.4088: real time      0.4107
  RMM-DIIS:  cpu time      0.7293: real time      0.7335
    ORTHCH:  cpu time      0.1163: real time      0.1169
       DOS:  cpu time      0.0016: real time      0.0016
    CHARGE:  cpu time      0.1199: real time      0.1205
    MIXING:  cpu time      0.0057: real time      0.0057
    --------------------------------------------
      LOOP:  cpu time      1.4493: real time      1.4573

 eigenvalue-minimisations  :   407
 total energy-change (2. order) :-0.1095116E-03  (-0.2345082E-05)
 number of electron     518.9999648 magnetization 
 augmentation part      175.9469111 magnetization 

 Broyden mixing:
  rms(total) = 0.25139E-02    rms(broyden)= 0.25138E-02
  rms(prec ) = 0.33198E-02
  weight for this iteration     100.00

 eigenvalues of (default mixing * dielectric matrix)
  average eigenvalue GAMMA=   0.7294
  5.8342  2.6844  2.1007  1.9061  1.3449  1.3449  1.0152  0.8867  0.8867  0.6026
  0.6026  0.5825  0.3485  0.3145  0.2592  0.2592  0.2395  0.2258  0.2127  0.1833
  0.1719  0.1639  0.1542  0.1443  0.1383  0.1267  0.1137  0.1080  0.1089  0.1010
  0.0939  0.0819

 Free energy of the ion-electron system (eV)
  ---------------------------------------------------
  alpha Z        PSCENC =      1067.80298853
  Ewald energy   TEWEN  =     57065.45584599
  -Hartree energ DENC   =    -89408.99184311
  -exchange      EXHF   =         0.00000000
  -V(xc)+E(xc)   XCENC  =     -2039.29860520
  PAW double counting   =     40477.73773205   -37524.08367671
  entropy T*S    EENTRO =        -0.02492046
  eigenvalues    EBANDS =       382.02954980
  atomic energy  EATOM  =     29401.96565168
  Solvation  Ediel_sol  =         0.00000000
  ---------------------------------------------------
  free energy    TOTEN  =      -577.40727742 eV

  energy without entropy =     -577.38235697  energy(sigma->0) =     -577.39481720


--------------------------------------------------------------------------------------------------------




--------------------------------------- Iteration      1(  38)  ---------------------------------------


    POTLOK:  cpu time      0.0673: real time      0.0722
    SETDIJ:  cpu time      0.0087: real time      0.0088
    EDDIAG:  cpu time      0.4210: real time      0.4232
  RMM-DIIS:  cpu time      0.7887: real time      0.7927
    ORTHCH:  cpu time      0.1082: real time      0.1088
       DOS:  cpu time      0.0016: real time      0.0016
    CHARGE:  cpu time      0.1216: real time      0.1223
    MIXING:  cpu time      0.0061: real time      0.0061
    --------------------------------------------
      LOOP:  cpu time      1.5233: real time      1.5357

 eigenvalue-minimisations  :   397
 total energy-change (2. order) :-0.1394513E-03  (-0.1680574E-05)
 number of electron     518.9999648 magnetization 
 augmentation part      175.9465178 magnetization 

 Broyden mixing:
  rms(total) = 0.17274E-02    rms(broyden)= 0.17273E-02
  rms(prec ) = 0.23075E-02
  weight for this iteration     100.00

 eigenvalues of (default mixing * dielectric matrix)
  average eigenvalue GAMMA=   0.7330
  6.2128  2.7030  2.1226  1.8953  1.3130  1.3130  1.2214  0.8874  0.8874  0.6204
  0.6204  0.5748  0.3610  0.3237  0.2672  0.2672  0.2553  0.2321  0.2203  0.2064
  0.1834  0.1688  0.1630  0.1534  0.1440  0.1376  0.1266  0.1137  0.1080  0.1089
  0.1010  0.0939  0.0819

 Free energy of the ion-electron system (eV)
  ---------------------------------------------------
  alpha Z        PSCENC =      1067.80298853
  Ewald energy   TEWEN  =     57065.45584599
  -Hartree energ DENC   =    -89409.11097650
  -exchange      EXHF   =         0.00000000
  -V(xc)+E(xc)   XCENC  =     -2039.29946132
  PAW double counting   =     40477.55507263   -37523.89796964
  entropy T*S    EENTRO =        -0.02492632
  eigenvalues    EBANDS =       382.14635806
  atomic energy  EATOM  =     29401.96565168
  Solvation  Ediel_sol  =         0.00000000
  ---------------------------------------------------
  free energy    TOTEN  =      -577.40741688 eV

  energy without entropy =     -577.38249055  energy(sigma->0) =     -577.39495371


--------------------------------------------------------------------------------------------------------




--------------------------------------- Iteration      1(  39)  ---------------------------------------


    POTLOK:  cpu time      0.0706: real time      0.0722
    SETDIJ:  cpu time      0.0088: real time      0.0088
    EDDIAG:  cpu time      0.4223: real time      0.4247
  RMM-DIIS:  cpu time      0.7821: real time      0.7859
    ORTHCH:  cpu time      0.1122: real time      0.1128
       DOS:  cpu time      0.0019: real time      0.0019
    CHARGE:  cpu time      0.1299: real time      0.1306
    MIXING:  cpu time      0.0066: real time      0.0067
    --------------------------------------------
      LOOP:  cpu time      1.5344: real time      1.5436

 eigenvalue-minimisations  :   380
 total energy-change (2. order) :-0.4760304E-04  (-0.5953977E-06)
 number of electron     518.9999648 magnetization 
 augmentation part      175.9479199 magnetization 

 Broyden mixing:
  rms(total) = 0.11412E-02    rms(broyden)= 0.11412E-02
  rms(prec ) = 0.15018E-02
  weight for this iteration     100.00

 eigenvalues of (default mixing * dielectric matrix)
  average eigenvalue GAMMA=   0.7351
  6.3534  2.7573  2.0276  2.0276  1.4458  1.2630  1.2630  0.8896  0.8896  0.6375
  0.6375  0.5743  0.4991  0.3432  0.2975  0.2898  0.2505  0.2505  0.2196  0.2196
  0.1866  0.1800  0.1678  0.1599  0.1515  0.1432  0.1359  0.1266  0.1137  0.1080
  0.1089  0.1010  0.0939  0.0819

 Free energy of the ion-electron system (eV)
  ---------------------------------------------------
  alpha Z        PSCENC =      1067.80298853
  Ewald energy   TEWEN  =     57065.45584599
  -Hartree energ DENC   =    -89409.13196415
  -exchange      EXHF   =         0.00000000
  -V(xc)+E(xc)   XCENC  =     -2039.29989344
  PAW double counting   =     40477.50111115   -37523.84336424
  entropy T*S    EENTRO =        -0.02490706
  eigenvalues    EBANDS =       382.16706705
  atomic energy  EATOM  =     29401.96565168
  Solvation  Ediel_sol  =         0.00000000
  ---------------------------------------------------
  free energy    TOTEN  =      -577.40746448 eV

  energy without entropy =     -577.38255742  energy(sigma->0) =     -577.39501095


--------------------------------------------------------------------------------------------------------




--------------------------------------- Iteration      1(  40)  ---------------------------------------


    POTLOK:  cpu time      0.0662: real time      0.0669
    SETDIJ:  cpu time      0.0090: real time      0.0091
    EDDIAG:  cpu time      0.4469: real time      0.4492
  RMM-DIIS:  cpu time      0.7668: real time      0.7701
    ORTHCH:  cpu time      0.1091: real time      0.1095
       DOS:  cpu time      0.0017: real time      0.0017
    CHARGE:  cpu time      0.1291: real time      0.1296
    MIXING:  cpu time      0.0069: real time      0.0070
    --------------------------------------------
      LOOP:  cpu time      1.5357: real time      1.5431

 eigenvalue-minimisations  :   378
 total energy-change (2. order) :-0.3025572E-04  (-0.3474371E-06)
 number of electron     518.9999648 magnetization 
 augmentation part      175.9479002 magnetization 

 Broyden mixing:
  rms(total) = 0.97084E-03    rms(broyden)= 0.97083E-03
  rms(prec ) = 0.12533E-02
  weight for this iteration     100.00

 eigenvalues of (default mixing * dielectric matrix)
  average eigenvalue GAMMA=   0.7504
  6.4799  2.8827  2.1343  2.1343  1.5605  1.3235  1.3235  0.9155  0.9155  0.7715
  0.6398  0.6398  0.5680  0.3510  0.3176  0.2916  0.2560  0.2560  0.2262  0.2262
  0.2107  0.1835  0.1729  0.1652  0.1568  0.1484  0.1425  0.1349  0.1266  0.1137
  0.1080  0.1089  0.1010  0.0939  0.0819

 Free energy of the ion-electron system (eV)
  ---------------------------------------------------
  alpha Z        PSCENC =      1067.80298853
  Ewald energy   TEWEN  =     57065.45584599
  -Hartree energ DENC   =    -89409.14309544
  -exchange      EXHF   =         0.00000000
  -V(xc)+E(xc)   XCENC  =     -2039.30011175
  PAW double counting   =     40477.55104667   -37523.89343346
  entropy T*S    EENTRO =        -0.02491364
  eigenvalues    EBANDS =       382.17852668
  atomic energy  EATOM  =     29401.96565168
  Solvation  Ediel_sol  =         0.00000000
  ---------------------------------------------------
  free energy    TOTEN  =      -577.40749473 eV

  energy without entropy =     -577.38258110  energy(sigma->0) =     -577.39503792


--------------------------------------------------------------------------------------------------------




--------------------------------------- Iteration      1(  41)  ---------------------------------------


    POTLOK:  cpu time      0.0614: real time      0.0620
    SETDIJ:  cpu time      0.0092: real time      0.0092
    EDDIAG:  cpu time      0.4338: real time      0.4357
  RMM-DIIS:  cpu time      0.6989: real time      0.7017
    ORTHCH:  cpu time      0.1013: real time      0.1018
       DOS:  cpu time      0.0016: real time      0.0016
    CHARGE:  cpu time      0.1235: real time      0.1240
    MIXING:  cpu time      0.0067: real time      0.0067
    --------------------------------------------
      LOOP:  cpu time      1.4363: real time      1.4426

 eigenvalue-minimisations  :   348
 total energy-change (2. order) :-0.4495661E-04  (-0.3608777E-06)
 number of electron     518.9999648 magnetization 
 augmentation part      175.9473699 magnetization 

 Broyden mixing:
  rms(total) = 0.65998E-03    rms(broyden)= 0.65998E-03
  rms(prec ) = 0.84506E-03
  weight for this iteration     100.00

 eigenvalues of (default mixing * dielectric matrix)
  average eigenvalue GAMMA=   0.7501
  6.5663  2.9370  2.2006  2.2006  1.6019  1.3553  1.3553  0.9215  0.9215  0.8007
  0.6333  0.6333  0.5822  0.3607  0.3413  0.2987  0.2987  0.2558  0.2558  0.2235
  0.2235  0.2058  0.1829  0.1710  0.1644  0.1554  0.1465  0.1417  0.1337  0.1265
  0.1137  0.1080  0.1089  0.1010  0.0939  0.0819

 Free energy of the ion-electron system (eV)
  ---------------------------------------------------
  alpha Z        PSCENC =      1067.80298853
  Ewald energy   TEWEN  =     57065.45584599
  -Hartree energ DENC   =    -89409.15789924
  -exchange      EXHF   =         0.00000000
  -V(xc)+E(xc)   XCENC  =     -2039.30040821
  PAW double counting   =     40477.73052738   -37524.07373694
  entropy T*S    EENTRO =        -0.02492007
  eigenvalues    EBANDS =       382.19441119
  atomic energy  EATOM  =     29401.96565168
  Solvation  Ediel_sol  =         0.00000000
  ---------------------------------------------------
  free energy    TOTEN  =      -577.40753969 eV

  energy without entropy =     -577.38261962  energy(sigma->0) =     -577.39507965


--------------------------------------------------------------------------------------------------------




--------------------------------------- Iteration      1(  42)  ---------------------------------------


    POTLOK:  cpu time      0.0592: real time      0.0598
    SETDIJ:  cpu time      0.0088: real time      0.0089
    EDDIAG:  cpu time      0.4235: real time      0.4253
  RMM-DIIS:  cpu time      0.6332: real time      0.6358
    ORTHCH:  cpu time      0.1145: real time      0.1150
       DOS:  cpu time      0.0015: real time      0.0015
    CHARGE:  cpu time      0.1253: real time      0.1258
    MIXING:  cpu time      0.0067: real time      0.0067
    --------------------------------------------
      LOOP:  cpu time      1.3728: real time      1.3787

 eigenvalue-minimisations  :   252
 total energy-change (2. order) :-0.1495107E-04  (-0.1603653E-06)
 number of electron     518.9999648 magnetization 
 augmentation part      175.9475321 magnetization 

 Broyden mixing:
  rms(total) = 0.47103E-03    rms(broyden)= 0.47103E-03
  rms(prec ) = 0.58056E-03
  weight for this iteration     100.00

 eigenvalues of (default mixing * dielectric matrix)
  average eigenvalue GAMMA=   0.7627
  6.7221  3.0570  2.2477  2.2477  1.6982  1.3860  1.3860  0.9203  0.9203  0.8280
  0.8280  0.6166  0.6166  0.5587  0.3515  0.3149  0.3092  0.2574  0.2574  0.2356
  0.2216  0.2173  0.1944  0.1825  0.1706  0.1637  0.1549  0.1461  0.1415  0.1337
  0.1265  0.0819  0.1137  0.1080  0.1089  0.1010  0.0939

 Free energy of the ion-electron system (eV)
  ---------------------------------------------------
  alpha Z        PSCENC =      1067.80298853
  Ewald energy   TEWEN  =     57065.45584599
  -Hartree energ DENC   =    -89409.16026525
  -exchange      EXHF   =         0.00000000
  -V(xc)+E(xc)   XCENC  =     -2039.30053716
  PAW double counting   =     40477.80418056   -37524.14787277
  entropy T*S    EENTRO =        -0.02491499
  eigenvalues    EBANDS =       382.19736876
  atomic energy  EATOM  =     29401.96565168
  Solvation  Ediel_sol  =         0.00000000
  ---------------------------------------------------
  free energy    TOTEN  =      -577.40755464 eV

  energy without entropy =     -577.38263965  energy(sigma->0) =     -577.39509715


--------------------------------------------------------------------------------------------------------




--------------------------------------- Iteration      1(  43)  ---------------------------------------


    POTLOK:  cpu time      0.0581: real time      0.0588
    SETDIJ:  cpu time      0.0086: real time      0.0086
    EDDIAG:  cpu time      0.4272: real time      0.4290
  RMM-DIIS:  cpu time      0.6486: real time      0.6512
    ORTHCH:  cpu time      0.1005: real time      0.1011
       DOS:  cpu time      0.0015: real time      0.0015
    CHARGE:  cpu time      0.1234: real time      0.1239
    MIXING:  cpu time      0.0069: real time      0.0069
    --------------------------------------------
      LOOP:  cpu time      1.3748: real time      1.3811

 eigenvalue-minimisations  :   257
 total energy-change (2. order) :-0.1435233E-04  (-0.1663862E-06)
 number of electron     518.9999648 magnetization 
 augmentation part      175.9477087 magnetization 

 Broyden mixing:
  rms(total) = 0.40249E-03    rms(broyden)= 0.40249E-03
  rms(prec ) = 0.50800E-03
  weight for this iteration     100.00

 eigenvalues of (default mixing * dielectric matrix)
  average eigenvalue GAMMA=   0.7670
  6.8146  3.2238  2.5460  1.9284  1.9284  1.3287  1.3287  1.1198  0.8876  0.8876
  0.8642  0.6328  0.6328  0.5640  0.3503  0.3211  0.3211  0.2643  0.2575  0.2575
  0.2382  0.2188  0.2148  0.1881  0.1822  0.1701  0.1638  0.1549  0.1461  0.1415
  0.1337  0.1265  0.0819  0.1137  0.1080  0.1089  0.0939  0.1010

 Free energy of the ion-electron system (eV)
  ---------------------------------------------------
  alpha Z        PSCENC =      1067.80298853
  Ewald energy   TEWEN  =     57065.45584599
  -Hartree energ DENC   =    -89409.16006666
  -exchange      EXHF   =         0.00000000
  -V(xc)+E(xc)   XCENC  =     -2039.30067449
  PAW double counting   =     40477.91993246   -37524.26460204
  entropy T*S    EENTRO =        -0.02491553
  eigenvalues    EBANDS =       382.19827106
  atomic energy  EATOM  =     29401.96565168
  Solvation  Ediel_sol  =         0.00000000
  ---------------------------------------------------
  free energy    TOTEN  =      -577.40756899 eV

  energy without entropy =     -577.38265346  energy(sigma->0) =     -577.39511123


--------------------------------------------------------------------------------------------------------




--------------------------------------- Iteration      1(  44)  ---------------------------------------


    POTLOK:  cpu time      0.0688: real time      0.0695
    SETDIJ:  cpu time      0.0083: real time      0.0084
    EDDIAG:  cpu time      0.4174: real time      0.4194
  RMM-DIIS:  cpu time      0.5576: real time      0.5600
    ORTHCH:  cpu time      0.0990: real time      0.0995
       DOS:  cpu time      0.0015: real time      0.0015
    --------------------------------------------
      LOOP:  cpu time      1.1527: real time      1.1583

 eigenvalue-minimisations  :   163
 total energy-change (2. order) :-0.5775124E-05  (-0.8214992E-07)
 number of electron     518.9999648 magnetization 
 augmentation part      175.9477087 magnetization 

 Free energy of the ion-electron system (eV)
  ---------------------------------------------------
  alpha Z        PSCENC =      1067.80298853
  Ewald energy   TEWEN  =     57065.45584599
  -Hartree energ DENC   =    -89409.16274089
  -exchange      EXHF   =         0.00000000
  -V(xc)+E(xc)   XCENC  =     -2039.30074417
  PAW double counting   =     40477.98912248   -37524.33429289
  entropy T*S    EENTRO =        -0.02491548
  eigenvalues    EBANDS =       382.20150997
  atomic energy  EATOM  =     29401.96565168
  Solvation  Ediel_sol  =         0.00000000
  ---------------------------------------------------
  free energy    TOTEN  =      -577.40757477 eV

  energy without entropy =     -577.38265929  energy(sigma->0) =     -577.39511703


--------------------------------------------------------------------------------------------------------




 average (electrostatic) potential at core
  the test charge radii are     1.2511  0.7089  0.5201
  (the norm of the test charge is              1.0000)
       1 -64.5416       2 -64.5345       3 -64.5560       4 -64.5298       5 -64.5415
       6 -64.5432       7 -64.5299       8 -64.5561       9 -64.5375      10 -64.5361
      11 -64.5474      12 -64.5474      13 -64.5649      14 -64.5362      15 -64.5386
      16 -64.5386      17 -64.9160      18 -64.9160      19 -64.9255      20 -64.9292
      21 -64.9064      22 -64.9063      23 -64.9254      24 -64.9057      25 -64.9259
      26 -64.9265      27 -64.9187      28 -64.9260      29 -64.9264      30 -64.9259
      31 -64.9420      32 -64.9259      33 -64.9947      34 -65.0477      35 -64.9909
      36 -64.9759      37 -64.9946      38 -64.9820      39 -64.9757      40 -64.9909
      41 -65.0267      42 -64.9133      43 -64.9813      44 -64.9812      45 -64.9776
      46 -64.9132      47 -65.0198      48 -65.0198      49 -64.5833      50 -64.5832
      51 -64.5505      52 -64.6055      53 -64.5816      54 -64.5816      55 -64.5504
      56 -64.5847      57 -64.5488      58 -64.6505      59 -64.5656      60 -64.5698
      61 -64.6500      62 -64.5488      63 -64.5503      64 -64.5697      65 -66.0960
      66 -36.0160      67 -36.0118
 
 
 
 E-fermi :   3.7286     XC(G=0):  -7.9403     alpha+bet : -9.6170

 Fermi energy:         3.7286079903

 k-point     1 :       0.0000    0.0000    0.0000
  band No.  band energies     occupation 
      1     -13.3785      2.00000
      2      -4.5942      2.00000
      3      -3.6956      2.00000
      4      -3.0953      2.00000
      5      -2.4446      2.00000
      6      -2.2132      2.00000
      7      -2.2070      2.00000
      8      -2.2042      2.00000
      9      -2.1332      2.00000
     10      -2.1315      2.00000
     11      -2.1206      2.00000
     12      -2.1204      2.00000
     13      -2.1150      2.00000
     14      -2.1092      2.00000
     15      -2.1044      2.00000
     16      -2.0983      2.00000
     17      -2.0951      2.00000
     18      -2.0142      2.00000
     19      -1.9586      2.00000
     20      -1.9470      2.00000
     21      -1.9232      2.00000
     22      -1.6965      2.00000
     23      -1.4865      2.00000
     24      -1.4683      2.00000
     25      -1.4618      2.00000
     26      -1.4612      2.00000
     27      -1.4448      2.00000
     28      -1.4446      2.00000
     29      -1.4224      2.00000
     30      -1.4089      2.00000
     31      -1.4049      2.00000
     32      -1.4035      2.00000
     33      -1.3972      2.00000
     34      -1.3808      2.00000
     35      -1.2502      2.00000
     36      -1.2372      2.00000
     37      -1.2334      2.00000
     38      -1.2319      2.00000
     39      -1.2210      2.00000
     40      -1.2136      2.00000
     41      -1.2101      2.00000
     42      -1.1989      2.00000
     43      -1.1962      2.00000
     44      -1.1894      2.00000
     45      -1.1796      2.00000
     46      -1.1718      2.00000
     47      -1.1288      2.00000
     48      -1.1180      2.00000
     49      -1.0609      2.00000
     50      -0.8772      2.00000
     51      -0.8317      2.00000
     52      -0.8298      2.00000
     53      -0.8112      2.00000
     54      -0.8109      2.00000
     55      -0.8020      2.00000
     56      -0.7577      2.00000
     57      -0.7348      2.00000
     58      -0.7193      2.00000
     59      -0.6955      2.00000
     60      -0.6284      2.00000
     61      -0.6270      2.00000
     62      -0.6223      2.00000
     63      -0.6149      2.00000
     64      -0.6114      2.00000
     65      -0.6040      2.00000
     66      -0.6002      2.00000
     67      -0.5967      2.00000
     68      -0.5902      2.00000
     69      -0.5816      2.00000
     70      -0.5810      2.00000
     71      -0.5748      2.00000
     72      -0.5674      2.00000
     73      -0.4867      2.00000
     74      -0.4486      2.00000
     75      -0.3683      2.00000
     76      -0.3675      2.00000
     77      -0.3562      2.00000
     78      -0.3549      2.00000
     79      -0.3449      2.00000
     80      -0.3022      2.00000
     81      -0.2799      2.00000
     82      -0.2745      2.00000
     83      -0.2706      2.00000
     84      -0.2647      2.00000
     85      -0.2357      2.00000
     86      -0.0462      2.00000
     87       0.0172      2.00000
     88       0.0243      2.00000
     89       0.0272      2.00000
     90       0.0289      2.00000
     91       0.0434      2.00000
     92       0.0488      2.00000
     93       0.0499      2.00000
     94       0.0739      2.00000
     95       0.1250      2.00000
     96       0.1591      2.00000
     97       0.1683      2.00000
     98       0.1734      2.00000
     99       0.1782      2.00000
    100       0.1802      2.00000
    101       0.2178      2.00000
    102       0.3005      2.00000
    103       0.3020      2.00000
    104       0.3060      2.00000
    105       0.3064      2.00000
    106       0.3102      2.00000
    107       0.3205      2.00000
    108       0.4353      2.00000
    109       0.4377      2.00000
    110       0.4384      2.00000
    111       0.4409      2.00000
    112       0.4666      2.00000
    113       0.5604      2.00000
    114       0.6775      2.00000
    115       0.6845      2.00000
    116       0.6850      2.00000
    117       0.6964      2.00000
    118       0.6967      2.00000
    119       0.7458      2.00000
    120       0.9730      2.00000
    121       0.9746      2.00000
    122       0.9822      2.00000
    123       0.9896      2.00000
    124       0.9920      2.00000
    125       0.9992      2.00000
    126       1.0070      2.00000
    127       1.0158      2.00000
    128       1.0160      2.00000
    129       1.0207      2.00000
    130       1.0231      2.00000
    131       1.0358      2.00000
    132       1.0405      2.00000
    133       1.0430      2.00000
    134       1.0652      2.00000
    135       1.0723      2.00000
    136       1.0738      2.00000
    137       1.1515      2.00000
    138       1.1520      2.00000
    139       1.1648      2.00000
    140       1.1910      2.00000
    141       1.1941      2.00000
    142       1.2280      2.00000
    143       1.2655      2.00000
    144       1.2820      2.00000
    145       1.2821      2.00000
    146       1.2858      2.00000
    147       1.2987      2.00000
    148       1.3034      2.00000
    149       1.3259      2.00000
    150       1.4679      2.00000
    151       1.4714      2.00000
    152       1.4743      2.00000
    153       1.4898      2.00000
    154       1.4930      2.00000
    155       1.5127      2.00000
    156       1.6401      2.00000
    157       1.6641      2.00000
    158       1.6737      2.00000
    159       1.6904      2.00000
    160       1.6929      2.00000
    161       1.7043      2.00000
    162       1.7292      2.00000
    163       1.7421      2.00000
    164       1.7514      2.00000
    165       1.7533      2.00000
    166       1.7614      2.00000
    167       1.7658      2.00000
    168       1.7678      2.00000
    169       1.7749      2.00000
    170       1.7773      2.00000
    171       1.7862      2.00000
    172       1.7893      2.00000
    173       1.8113      2.00000
    174       1.8195      2.00000
    175       1.8546      2.00000
    176       1.8667      2.00000
    177       1.8749      2.00000
    178       1.8752      2.00000
    179       1.8866      2.00000
    180       1.8889      2.00000
    181       1.8987      2.00000
    182       1.9118      2.00000
    183       1.9155      2.00000
    184       1.9505      2.00000
    185       1.9571      2.00000
    186       1.9575      2.00000
    187       1.9620      2.00000
    188       1.9668      2.00000
    189       1.9780      2.00000
    190       2.0008      2.00000
    191       2.0321      2.00000
    192       2.0394      2.00000
    193       2.0415      2.00000
    194       2.0489      2.00000
    195       2.0824      2.00000
    196       2.0841      2.00000
    197       2.0911      2.00000
    198       2.0921      2.00000
    199       2.1004      2.00000
    200       2.1127      2.00000
    201       2.1176      2.00000
    202       2.1577      2.00000
    203       2.1655      2.00000
    204       2.1703      2.00000
    205       2.1790      2.00000
    206       2.1888      2.00000
    207       2.1971      2.00000
    208       2.2001      2.00000
    209       2.2031      2.00000
    210       2.2150      2.00000
    211       2.2158      2.00000
    212       2.2204      2.00000
    213       2.2223      2.00000
    214       2.2346      2.00000
    215       2.2432      2.00000
    216       2.2731      2.00000
    217       2.3746      2.00000
    218       2.3876      2.00000
    219       2.3981      2.00000
    220       2.6135      2.00000
    221       2.6744      2.00000
    222       2.7429      2.00000
    223       2.7617      2.00000
    224       2.7637      2.00000
    225       2.7743      2.00000
    226       2.7816      2.00000
    227       2.7833      2.00000
    228       2.7937      2.00000
    229       2.8609      2.00000
    230       2.8825      2.00000
    231       2.8907      2.00000
    232       3.0682      2.00000
    233       3.0695      2.00000
    234       3.0727      2.00000
    235       3.0739      2.00000
    236       3.0814      2.00000
    237       3.0957      2.00000
    238       3.0971      2.00000
    239       3.1038      2.00000
    240       3.1058      2.00000
    241       3.1205      2.00000
    242       3.1512      2.00000
    243       3.2018      2.00000
    244       3.2202      2.00000
    245       3.2348      2.00000
    246       3.2440      2.00000
    247       3.2476      2.00000
    248       3.2593      2.00000
    249       3.3173      2.00000
    250       3.6708      2.00000
    251       3.6836      2.00000
    252       3.6878      2.00000
    253       3.6921      2.00000
    254       3.7026      1.99977
    255       3.7048      1.99923
    256       3.7199      1.77969
    257       3.7213      1.69723
    258       3.7220      1.64928
    259       3.7245      1.43665
    260       3.7247      1.41896
    261       3.7284      1.01919
    262       3.7643      0.00000
    263       3.7668      0.00000
    264       3.7773      0.00000
    265       3.7805      0.00000
    266       3.7810      0.00000
    267       3.7883      0.00000
    268       3.7989      0.00000
    269       3.8009      0.00000
    270       3.8283      0.00000
    271       3.8341      0.00000
    272       3.8551      0.00000
    273       3.8609      0.00000
    274       3.8741      0.00000
    275       3.8857      0.00000
    276       3.8922      0.00000
    277       3.8967      0.00000
    278       3.9050      0.00000
    279       3.9105      0.00000
    280       3.9114      0.00000
    281       3.9184      0.00000
    282       3.9599      0.00000
    283       4.0007      0.00000
    284       4.0151      0.00000
    285       4.0179      0.00000
    286       4.0609      0.00000
    287       4.2529      0.00000
    288       4.5323      0.00000
    289       4.5966      0.00000
    290       4.5984      0.00000
    291       4.6167      0.00000
    292       4.6299      0.00000
    293       4.6367      0.00000
    294       4.6385      0.00000
    295       4.6434      0.00000
    296       4.6460      0.00000
    297       4.6849      0.00000
    298       4.6857      0.00000
    299       4.6975      0.00000
    300       4.7058      0.00000
    301       4.7122      0.00000
    302       4.7148      0.00000
    303       4.7230      0.00000
    304       4.7924      0.00000
    305       4.8326      0.00000
    306       4.8649      0.00000
    307       4.9070      0.00000
    308       4.9966      0.00000
    309       5.1095      0.00000
    310       5.1190      0.00000
    311       5.1286      0.00000
    312       5.1472      0.00000
    313       5.1557      0.00000
    314       5.1735      0.00000
    315       5.2001      0.00000
    316       5.2355      0.00000
    317       5.2391      0.00000
    318       5.2619      0.00000
    319       5.2829      0.00000
    320       5.2992      0.00000


--------------------------------------------------------------------------------------------------------


 soft charge-density along one line, spin component           1
         0         1         2         3         4         5         6         7         8         9
 total charge-density along one line
 
 pseudopotential strength for first ion, spin component:           1
 -3.476   0.002  -0.002  -0.001   0.002  -3.656   0.001  -0.001
  0.002  -3.565  -0.001   0.000   0.000   0.001  -3.742  -0.001
 -0.002  -0.001  -3.592  -0.000  -0.000  -0.001  -0.001  -3.768
 -0.001   0.000  -0.000  -3.566   0.002  -0.001   0.000  -0.000
  0.002   0.000  -0.000   0.002  -3.477   0.001   0.000  -0.000
 -3.656   0.001  -0.001  -0.001   0.001  -3.808   0.001  -0.001
  0.001  -3.742  -0.001   0.000   0.000   0.001  -3.891  -0.001
 -0.001  -0.001  -3.768  -0.000  -0.000  -0.001  -0.001  -3.916
 -0.001   0.000  -0.000  -3.743   0.002  -0.001   0.000  -0.000
  0.001   0.000  -0.000   0.002  -3.657   0.001   0.000  -0.000
 -0.000   0.000   0.025  -0.001   0.000  -0.000   0.000   0.024
  0.000  -0.001  -0.042   0.001  -0.000   0.000  -0.001  -0.041
  0.001  -0.002  -0.000  -0.000  -0.002   0.001  -0.002  -0.000
 -0.000   0.001  -0.005   0.001  -0.000  -0.000   0.001  -0.005
 -0.000  -0.000  -0.001  -0.002   0.001  -0.000  -0.000  -0.001
  0.002   0.004  -0.001  -0.000  -0.002   0.001   0.003  -0.001
 -0.000   0.001  -0.001   0.002  -0.000  -0.000   0.001  -0.001
 -0.000  -0.000  -0.001   0.003   0.001  -0.000  -0.000  -0.001
 total augmentation occupancy for first ion, spin component:           1
  1.759   0.012  -0.018   0.047   0.038  -1.421  -0.006   0.010   0.020  -0.020  -0.011   0.000  -0.001   0.003   0.043   0.000
  0.012   1.359  -0.010  -0.005   0.051  -0.006  -0.909   0.005   0.002   0.014  -0.005  -0.000  -0.216   0.008   0.006   0.001
 -0.018  -0.010   1.612  -0.024  -0.014   0.010   0.005  -1.198   0.012   0.008   0.260   0.001  -0.002  -0.200  -0.002   0.000
  0.047  -0.005  -0.024   1.328   0.014   0.017   0.002   0.012  -0.892  -0.007   0.004   0.000   0.003   0.005  -0.206  -0.000
  0.038   0.051  -0.014   0.014   1.737  -0.020   0.017   0.008  -0.007  -1.411  -0.000  -0.000   0.039   0.002  -0.000  -0.001
 -1.421  -0.006   0.010   0.017  -0.020   2.527   0.003  -0.007  -0.104   0.011   0.006  -0.000   0.000  -0.002  -0.050   0.000
 -0.006  -0.909   0.005   0.002   0.017   0.003   1.799  -0.002  -0.000  -0.103   0.004  -0.000   0.250  -0.004  -0.003  -0.007
  0.010   0.005  -1.198   0.012   0.008  -0.007  -0.002   2.140  -0.006  -0.005  -0.352  -0.013   0.001   0.338   0.001  -0.000
  0.020   0.002   0.012  -0.892  -0.007  -0.104  -0.000  -0.006   1.790   0.003  -0.004  -0.000  -0.001  -0.003   0.245  -0.000
 -0.020   0.014   0.008  -0.007  -1.411   0.011  -0.103  -0.005   0.003   2.522   0.000  -0.000  -0.048  -0.001   0.000   0.000
 -0.011  -0.005   0.260   0.004  -0.000   0.006   0.004  -0.352  -0.004   0.000   1.656   0.043  -0.000   0.169  -0.000   0.000
  0.000  -0.000   0.001   0.000  -0.000  -0.000  -0.000  -0.013  -0.000  -0.000   0.043   0.002  -0.000   0.007   0.000   0.000
 -0.001  -0.216  -0.002   0.003   0.039   0.000   0.250   0.001  -0.001  -0.048  -0.000  -0.000   0.286  -0.000  -0.000  -0.003
  0.003   0.008  -0.200   0.005   0.002  -0.002  -0.004   0.338  -0.003  -0.001   0.169   0.007  -0.000   0.187   0.000  -0.000
  0.043   0.006  -0.002  -0.206  -0.000  -0.050  -0.003   0.001   0.245   0.000  -0.000   0.000  -0.000   0.000   0.287  -0.000
  0.000   0.001   0.000  -0.000  -0.001   0.000  -0.007  -0.000  -0.000   0.000   0.000   0.000  -0.003  -0.000  -0.000   0.000
  0.000   0.000  -0.001   0.000   0.000  -0.000   0.000  -0.009   0.000  -0.000  -0.003  -0.000   0.000  -0.003   0.000   0.000
 -0.001  -0.000   0.000   0.001   0.000   0.000  -0.000  -0.000  -0.007   0.000   0.000   0.000  -0.000  -0.000  -0.003   0.000


------------------------ aborting loop because EDIFF is reached ----------------------------------------





 total charge

# of ion       s       p       d       tot
------------------------------------------
    1        0.610   0.534   6.500   7.643
    2        0.610   0.531   6.506   7.647
    3        0.608   0.536   6.499   7.643
    4        0.605   0.532   6.508   7.645
    5        0.610   0.534   6.500   7.643
    6        0.609   0.534   6.497   7.640
    7        0.605   0.532   6.508   7.645
    8        0.608   0.536   6.499   7.643
    9        0.608   0.533   6.505   7.645
   10        0.605   0.536   6.503   7.644
   11        0.607   0.536   6.501   7.644
   12        0.607   0.536   6.502   7.644
   13        0.604   0.540   6.496   7.640
   14        0.605   0.536   6.503   7.645
   15        0.609   0.535   6.499   7.643
   16        0.609   0.535   6.499   7.643
   17        0.632   0.774   6.570   7.976
   18        0.632   0.774   6.570   7.976
   19        0.630   0.774   6.568   7.972
   20        0.629   0.770   6.560   7.959
   21        0.630   0.771   6.571   7.972
   22        0.630   0.771   6.571   7.972
   23        0.630   0.774   6.567   7.972
   24        0.631   0.772   6.572   7.975
   25        0.631   0.774   6.568   7.973
   26        0.631   0.774   6.567   7.973
   27        0.629   0.774   6.564   7.966
   28        0.632   0.774   6.564   7.970
   29        0.631   0.774   6.567   7.973
   30        0.631   0.774   6.568   7.973
   31        0.630   0.776   6.564   7.969
   32        0.632   0.774   6.564   7.970
   33        0.642   0.806   6.594   8.041
   34        0.647   0.817   6.589   8.053
   35        0.642   0.805   6.594   8.041
   36        0.639   0.794   6.582   8.015
   37        0.642   0.806   6.594   8.041
   38        0.642   0.799   6.596   8.036
   39        0.639   0.794   6.581   8.015
   40        0.642   0.805   6.594   8.041
   41        0.644   0.804   6.588   8.037
   42        0.643   0.796   6.594   8.033
   43        0.643   0.802   6.597   8.042
   44        0.643   0.802   6.597   8.042
   45        0.633   0.790   6.568   7.991
   46        0.643   0.796   6.594   8.033
   47        0.645   0.807   6.591   8.043
   48        0.645   0.807   6.591   8.043
   49        0.625   0.570   6.543   7.737
   50        0.625   0.570   6.543   7.738
   51        0.623   0.551   6.546   7.720
   52        0.623   0.561   6.575   7.759
   53        0.629   0.571   6.545   7.744
   54        0.629   0.571   6.545   7.745
   55        0.623   0.551   6.546   7.720
   56        0.626   0.552   6.538   7.716
   57        0.622   0.550   6.547   7.718
   58        0.598   0.657   6.551   7.806
   59        0.617   0.556   6.546   7.719
   60        0.622   0.552   6.546   7.721
   61        0.598   0.657   6.551   7.806
   62        0.622   0.550   6.547   7.718
   63        0.625   0.553   6.573   7.751
   64        0.622   0.552   6.546   7.721
   65        1.218   2.628   0.000   3.846
   66        0.633   0.082   0.000   0.716
   67        0.635   0.082   0.000   0.718
--------------------------------------------------
tot         42.499  45.675 419.326 507.500
 
    CHARGE:  cpu time      0.1142: real time      0.1148
    FORLOC:  cpu time      0.0298: real time      0.0300
    FORNL :  cpu time      0.4926: real time      0.4949
    STRESS:  cpu time      1.5028: real time      1.5100
    FORCOR:  cpu time      0.0756: real time      0.0759
    FORHAR:  cpu time      0.0260: real time      0.0262
    MIXING:  cpu time      0.0068: real time      0.0068
    OFIELD:  cpu time      0.0001: real time      0.0000

  FORCE on cell =-STRESS in cart. coord.  units (eV):
  Direction    XX          YY          ZZ          XY          YZ          ZX
  --------------------------------------------------------------------------------------
  Alpha Z  1067.80299  1067.80299  1067.80299
  Ewald   80372.16756 80401.79415************     0.08298     1.18206    -0.02757
  Hartree 87885.75638 87886.48992-86362.87970     0.02565     0.54694    -0.00303
  E(xc)   -2442.56816 -2442.03906 -2432.87884    -0.00044     0.06417    -0.00001
  Local  ************************181896.61814    -0.10239    -0.72449     0.02738
  n-local   693.91095   694.28124   587.28499     0.00268    -0.72265     0.00103
  augment  2920.27172  2918.51820  2845.48636     0.00120    -0.25091    -0.00233
  Kinetic  6147.38466  6126.28956  6053.78318    -0.00955    -0.79725     0.00708
  Fock        0.00000     0.00000     0.00000     0.00000     0.00000     0.00000
  -------------------------------------------------------------------------------------
  Total     -62.97806   -66.01366   -53.45543     0.00014    -0.70214     0.00255
  in kB     -56.15361   -58.86027   -47.66288     0.00012    -0.62606     0.00227
  external pressure =      -54.23 kB  Pullay stress =        0.00 kB


 VOLUME and BASIS-vectors are now :
 -----------------------------------------------------------------------------
  energy-cutoff  :      500.00
  volume of cell :     1796.89
      direct lattice vectors                 reciprocal lattice vectors
    10.903400421  0.000000000  0.000000000     0.091714508  0.052951396  0.000000000
    -5.451700211  9.442621752  0.000000000     0.000000000  0.105902791  0.000000000
     0.000000000  0.000000000 17.452899933     0.000000000  0.000000000  0.057297068

  length of vectors
    10.903400421 10.903400421 17.452899933     0.105902791  0.105902791  0.057297068


 FORCES acting on ions
    electron-ion (+dipol)            ewald-force                    non-local-force                 convergence-correction
 -----------------------------------------------------------------------------------------------
   0.100E+00 0.240E+00 0.138E+04   -.193E+00 -.212E+00 -.137E+04   -.121E+00 -.935E-01 -.380E+01   0.355E-03 -.152E-02 -.250E-02
   -.340E-03 0.640E+00 0.138E+04   0.213E-02 -.544E+00 -.137E+04   0.342E-03 0.125E+00 -.407E+01   -.131E-02 -.936E-03 -.232E-02
   0.562E+00 0.195E+00 0.138E+04   -.480E+00 -.173E+00 -.137E+04   0.343E-01 0.357E-02 -.396E+01   0.276E-03 0.130E-02 -.282E-02
   0.360E+00 0.566E+00 0.138E+04   -.387E+00 -.537E+00 -.137E+04   0.668E-01 -.158E-01 -.414E+01   -.156E-02 0.230E-02 -.308E-02
   -.107E+00 0.236E+00 0.138E+04   0.195E+00 -.210E+00 -.137E+04   0.121E+00 -.934E-01 -.380E+01   0.305E-02 0.603E-03 -.229E-02
   0.244E-02 -.252E+00 0.138E+04   0.323E-03 0.165E+00 -.137E+04   0.334E-03 -.216E-01 -.385E+01   -.215E-02 -.602E-03 -.236E-02
   -.364E+00 0.568E+00 0.138E+04   0.392E+00 -.537E+00 -.137E+04   -.668E-01 -.161E-01 -.414E+01   0.127E-02 -.145E-03 -.274E-02
   -.562E+00 0.198E+00 0.138E+04   0.479E+00 -.173E+00 -.137E+04   -.347E-01 0.449E-02 -.396E+01   0.619E-04 -.197E-02 -.266E-02
   -.292E-03 -.124E+00 0.138E+04   -.745E-03 0.144E+00 -.137E+04   0.401E-03 -.568E-01 -.427E+01   0.990E-03 -.449E-03 -.311E-02
   0.694E+00 -.255E+00 0.138E+04   -.752E+00 0.249E+00 -.137E+04   0.484E-01 -.698E-01 -.405E+01   0.162E-02 -.274E-03 -.326E-02
   -.342E+00 -.476E-01 0.138E+04   0.280E+00 0.815E-02 -.137E+04   -.774E-01 0.730E-01 -.400E+01   -.132E-02 0.802E-03 -.299E-02
   0.341E+00 -.471E-01 0.138E+04   -.278E+00 0.987E-02 -.137E+04   0.772E-01 0.728E-01 -.399E+01   0.111E-02 -.117E-02 -.294E-02
   0.155E-03 -.444E+00 0.138E+04   0.289E-02 0.330E+00 -.137E+04   0.374E-03 -.468E-01 -.376E+01   -.278E-02 0.160E-02 -.304E-02
   -.698E+00 -.255E+00 0.138E+04   0.754E+00 0.248E+00 -.137E+04   -.485E-01 -.699E-01 -.405E+01   0.117E-03 0.817E-03 -.284E-02
   0.288E+00 -.589E+00 0.138E+04   -.244E+00 0.612E+00 -.137E+04   -.167E+00 0.591E-01 -.394E+01   0.794E-03 -.705E-03 -.273E-02
   -.292E+00 -.588E+00 0.138E+04   0.247E+00 0.611E+00 -.137E+04   0.167E+00 0.593E-01 -.394E+01   -.594E-03 0.314E-03 -.286E-02
   0.228E+00 0.436E+00 0.482E+03   -.220E+00 -.467E+00 -.482E+03   0.317E-01 0.425E-01 -.813E+00   -.122E-02 -.808E-03 -.215E-02
   -.229E+00 0.429E+00 0.482E+03   0.221E+00 -.460E+00 -.482E+03   -.318E-01 0.427E-01 -.814E+00   0.169E-02 0.279E-03 -.191E-02
   0.838E+00 0.108E+01 0.482E+03   -.805E+00 -.106E+01 -.483E+03   -.109E-01 0.329E-01 -.809E+00   -.905E-04 -.107E-03 -.217E-02
   -.409E-02 0.156E+01 0.481E+03   0.429E-02 -.148E+01 -.481E+03   -.322E-03 -.231E-01 -.742E+00   -.257E-03 0.338E-03 -.137E-02
   -.279E+00 -.352E+00 0.481E+03   0.200E+00 0.344E+00 -.481E+03   -.213E-01 -.169E-01 -.802E+00   -.105E-03 0.538E-03 -.265E-02
   0.288E+00 -.349E+00 0.481E+03   -.209E+00 0.342E+00 -.481E+03   0.207E-01 -.167E-01 -.801E+00   -.356E-03 -.522E-03 -.263E-02
   -.837E+00 0.107E+01 0.482E+03   0.802E+00 -.105E+01 -.483E+03   0.104E-01 0.330E-01 -.809E+00   0.205E-02 -.109E-02 -.195E-02
   0.978E-02 0.419E-01 0.481E+03   -.818E-02 -.413E-01 -.481E+03   -.264E-03 0.731E-01 -.747E+00   -.165E-02 -.394E-03 -.198E-02
   0.210E+01 -.435E+00 0.482E+03   -.210E+01 0.453E+00 -.482E+03   -.591E-01 0.521E-01 -.702E+00   0.706E-03 -.167E-03 -.291E-02
   0.102E+01 0.226E-01 0.484E+03   -.990E+00 -.591E-02 -.485E+03   -.181E-02 -.279E-01 -.841E+00   -.345E-03 0.103E-02 -.370E-02
   0.792E-02 0.691E+00 0.480E+03   -.744E-02 -.706E+00 -.480E+03   -.383E-03 -.883E-01 -.830E+00   -.367E-03 0.527E-03 -.248E-02
   0.120E+01 -.775E+00 0.482E+03   -.120E+01 0.822E+00 -.482E+03   -.303E-01 -.347E-01 -.765E+00   0.142E-02 -.207E-03 -.324E-02
   -.102E+01 0.235E-01 0.484E+03   0.996E+00 -.608E-02 -.485E+03   0.112E-02 -.279E-01 -.842E+00   -.840E-03 0.369E-03 -.106E-02
   -.208E+01 -.436E+00 0.482E+03   0.208E+01 0.455E+00 -.482E+03   0.584E-01 0.522E-01 -.702E+00   0.428E-03 -.188E-02 -.194E-02
   -.190E-02 -.176E+01 0.483E+03   0.247E-02 0.174E+01 -.483E+03   -.989E-04 0.487E-01 -.730E+00   -.627E-03 0.427E-03 -.318E-02
   -.120E+01 -.759E+00 0.482E+03   0.120E+01 0.805E+00 -.482E+03   0.299E-01 -.353E-01 -.765E+00   -.392E-03 0.168E-02 -.231E-02
   0.292E+01 0.140E+01 -.429E+03   -.291E+01 -.140E+01 0.430E+03   0.318E-01 0.879E-01 0.268E-01   0.748E-03 -.384E-03 0.201E-02
   -.536E-02 0.391E+01 -.424E+03   0.629E-02 -.406E+01 0.424E+03   -.136E-03 0.135E+00 -.916E-01   -.948E-03 -.246E-03 0.198E-02
   0.577E+01 0.173E+01 -.432E+03   -.561E+01 -.167E+01 0.433E+03   -.127E+00 -.106E+00 -.380E-01   -.604E-03 -.641E-04 0.250E-02
   0.449E+01 0.451E+01 -.421E+03   -.474E+01 -.423E+01 0.421E+03   0.161E+00 -.275E+00 0.479E-01   -.393E-03 0.324E-03 0.244E-02
   -.293E+01 0.138E+01 -.429E+03   0.291E+01 -.139E+01 0.430E+03   -.318E-01 0.881E-01 0.275E-01   0.157E-02 0.169E-02 0.166E-02
   0.132E-01 -.238E+01 -.431E+03   -.117E-01 0.239E+01 0.432E+03   -.478E-04 -.429E-01 -.676E-01   -.138E-02 0.798E-03 0.818E-03
   -.452E+01 0.449E+01 -.421E+03   0.477E+01 -.422E+01 0.421E+03   -.161E+00 -.274E+00 0.486E-01   0.185E-02 0.151E-03 0.307E-02
   -.573E+01 0.173E+01 -.432E+03   0.558E+01 -.167E+01 0.433E+03   0.127E+00 -.106E+00 -.379E-01   -.867E-03 -.102E-02 0.303E-02
   0.204E-01 -.184E+01 -.435E+03   -.196E-01 0.190E+01 0.436E+03   -.695E-03 -.556E-01 0.185E+00   -.531E-03 -.106E-02 0.270E-02
   0.410E+01 -.248E+01 -.427E+03   -.395E+01 0.220E+01 0.428E+03   -.185E+00 0.291E+00 -.197E+00   0.472E-03 -.682E-03 0.175E-02
   -.357E+01 0.283E+01 -.432E+03   0.357E+01 -.278E+01 0.432E+03   -.103E+00 -.109E+00 0.941E-01   -.105E-02 0.662E-03 0.293E-02
   0.356E+01 0.282E+01 -.432E+03   -.355E+01 -.277E+01 0.432E+03   0.104E+00 -.109E+00 0.946E-01   0.163E-03 0.184E-03 0.979E-03
   -.289E-01 -.483E+01 -.413E+03   0.288E-01 0.482E+01 0.413E+03   0.591E-03 0.100E-02 0.369E+00   0.256E-03 -.394E-04 0.183E-02
   -.409E+01 -.247E+01 -.427E+03   0.394E+01 0.218E+01 0.428E+03   0.184E+00 0.293E+00 -.197E+00   -.169E-03 -.450E-03 0.337E-02
   0.425E+01 -.559E+01 -.424E+03   -.425E+01 0.544E+01 0.424E+03   0.675E-01 0.124E+00 -.604E-01   0.447E-03 0.575E-03 0.784E-03
   -.424E+01 -.556E+01 -.424E+03   0.424E+01 0.541E+01 0.424E+03   -.687E-01 0.124E+00 -.601E-01   0.424E-03 -.516E-03 0.134E-02
   0.385E+00 0.125E+02 -.137E+04   -.345E+00 -.124E+02 0.137E+04   -.123E+00 -.719E-01 0.442E+01   -.119E-02 -.473E-03 0.252E-02
   -.397E+00 0.125E+02 -.137E+04   0.357E+00 -.124E+02 0.137E+04   0.123E+00 -.725E-01 0.442E+01   0.682E-03 0.169E-02 0.265E-02
   0.213E+02 0.126E+02 -.136E+04   -.214E+02 -.130E+02 0.136E+04   -.425E-02 0.224E+00 0.474E+01   0.416E-03 0.321E-03 0.229E-02
   -.211E-01 0.457E+02 -.132E+04   0.215E-01 -.470E+02 0.132E+04   -.435E-03 0.105E+01 0.515E+01   0.126E-03 0.522E-03 0.272E-02
   0.213E+01 -.113E+02 -.137E+04   -.214E+01 0.112E+02 0.137E+04   0.107E+00 0.106E+00 0.424E+01   -.857E-03 0.227E-02 0.233E-02
   -.212E+01 -.112E+02 -.137E+04   0.213E+01 0.112E+02 0.137E+04   -.107E+00 0.106E+00 0.424E+01   0.148E-02 -.962E-04 0.241E-02
   -.213E+02 0.126E+02 -.136E+04   0.214E+02 -.129E+02 0.136E+04   0.365E-02 0.224E+00 0.474E+01   0.167E-02 0.872E-03 0.269E-02
   0.275E-01 -.635E+00 -.138E+04   -.242E-01 0.677E+00 0.137E+04   0.218E-03 -.987E-01 0.477E+01   -.232E-02 0.148E-02 0.249E-02
   0.189E+02 0.457E+00 -.137E+04   -.190E+02 -.404E+00 0.136E+04   -.193E-01 -.273E-01 0.473E+01   -.601E-03 -.136E-02 0.291E-02
   0.957E+02 -.420E+01 -.127E+04   -.950E+02 0.409E+01 0.127E+04   -.561E+00 0.550E-01 0.182E+01   0.105E-03 -.507E-03 0.228E-02
   0.162E-01 -.285E+01 -.138E+04   -.135E-01 0.261E+01 0.137E+04   0.470E-04 0.937E-01 0.449E+01   -.219E-02 -.579E-03 0.246E-02
   0.202E+02 -.115E+02 -.136E+04   -.203E+02 0.117E+02 0.136E+04   0.688E-01 -.142E+00 0.468E+01   0.811E-03 -.669E-03 0.224E-02
   -.957E+02 -.419E+01 -.127E+04   0.951E+02 0.408E+01 0.127E+04   0.561E+00 0.535E-01 0.182E+01   0.120E-02 -.612E-03 0.230E-02
   -.189E+02 0.465E+00 -.137E+04   0.190E+02 -.411E+00 0.136E+04   0.193E-01 -.269E-01 0.473E+01   -.623E-03 -.164E-02 0.280E-02
   -.155E-01 -.404E+02 -.133E+04   0.161E-01 0.419E+02 0.132E+04   0.207E-03 -.103E+01 0.475E+01   0.303E-03 -.108E-02 0.207E-02
   -.202E+02 -.114E+02 -.136E+04   0.203E+02 0.117E+02 0.136E+04   -.700E-01 -.142E+00 0.469E+01   0.101E-02 -.747E-04 0.228E-02
   -.510E-01 0.711E+00 -.921E+03   0.740E-01 -.803E+00 0.909E+03   -.237E-01 0.390E-01 0.123E+02   0.466E-03 -.160E-03 -.172E-03
   0.222E-01 -.555E+02 -.204E+03   -.242E-01 0.614E+02 0.208E+03   0.247E-02 -.591E+01 -.418E+01   0.663E-04 -.131E-03 -.646E-04
   0.584E-01 0.552E+02 -.204E+03   -.639E-01 -.611E+02 0.208E+03   0.669E-02 0.586E+01 -.425E+01   0.745E-04 0.810E-04 -.820E-04
 -----------------------------------------------------------------------------------------------
   0.170E-01 -.320E+00 0.393E+01   -.424E-13 0.568E-13 -.148E-11   -.207E-01 0.383E+00 -.386E+01   0.599E-03 -.219E-03 -.983E-02
 
 
 POSITION                                       TOTAL-FORCE (eV/Angst)
 -----------------------------------------------------------------------------------
     -0.00005      1.57380      0.00000        -0.213161     -0.067585      1.054194
      2.72580      1.57380      0.00000         0.000874      0.219148      1.099379
     -1.36298      3.93446      0.00000         0.117382      0.026081      1.133013
      1.36287      3.93446      0.00000         0.037997      0.014497      0.995969
      5.45165      1.57380      0.00000         0.211922     -0.067970      1.054204
      8.17749      1.57380      0.00000         0.000999     -0.109987      1.016421
      4.08872      3.93446      0.00000        -0.037503      0.014366      0.995869
      6.81457      3.93446      0.00000        -0.117217      0.027178      1.133445
     -2.72590      6.29511      0.00000         0.000399     -0.037732      0.985441
     -0.00005      6.29511      0.00000        -0.008060     -0.076876      1.018198
     -4.08883      8.65577      0.00000        -0.141132      0.033359      1.171080
     -1.36298      8.65577      0.00000         0.141160      0.033459      1.171380
      2.72580      6.29511      0.00000         0.000683     -0.160203      1.142599
      5.45164      6.29511      0.00000         0.008190     -0.077076      1.018065
      1.36287      8.65577      0.00000        -0.121502      0.080682      1.120292
      4.08872      8.65577      0.00000         0.122196      0.081007      1.120008
      1.36298      0.78685      2.15090         0.037964      0.010449     -1.040712
      4.08883      0.78685      2.15090        -0.037891      0.010532     -1.040814
      0.00005      3.14751      2.15090         0.021955      0.054142     -0.937457
      2.72590      3.14751      2.15090        -0.000335      0.052177     -1.053801
      6.81468      0.78685      2.15090        -0.099857     -0.024739     -1.092377
      9.54053      0.78685      2.15090         0.099259     -0.024659     -1.092053
      5.45175      3.14751      2.15090        -0.022304      0.054131     -0.937339
      8.17761      3.14751      2.15090        -0.000271      0.072462     -1.068296
     -1.36287      5.50816      2.15090        -0.055683      0.068857     -0.994870
      1.36298      5.50816      2.15090         0.026171     -0.011077     -0.982632
     -2.72580      7.86882      2.15090        -0.000223     -0.102916     -0.988255
      0.00005      7.86882      2.15090        -0.027585      0.012008     -1.038294
      4.08883      5.50816      2.15090        -0.026712     -0.011083     -0.982919
      6.81468      5.50816      2.15090         0.055090      0.068767     -0.995181
      2.72590      7.86882      2.15090        -0.000107      0.033717     -1.054200
      5.45176      7.86882      2.15090         0.027095      0.011442     -1.037973
      0.00204      1.57533      4.28123         0.044433      0.086603      0.389930
      2.72585      1.55536      4.28307        -0.000111     -0.017802      0.624641
     -1.36063      3.93499      4.28068         0.026341     -0.052505      0.258670
      1.35287      3.94159      4.28579        -0.090855     -0.000226      0.297943
      5.44967      1.57534      4.28122        -0.044330      0.086587      0.390319
      8.17756      1.57784      4.28025         0.000106     -0.026368      0.336390
      4.09881      3.94161      4.28581         0.091243     -0.000174      0.297988
      6.81238      3.93500      4.28070        -0.026637     -0.052466      0.259093
     -2.72586      6.28873      4.28933        -0.000396      0.005800      0.659622
     -0.00808      6.28927      4.27728        -0.030374      0.003997      0.266037
     -4.09219      8.65907      4.28204        -0.112624     -0.060191      0.344809
     -1.35960      8.65913      4.28200         0.113770     -0.059848      0.344706
      2.72584      6.28599      4.27971         0.000787     -0.014217      0.488547
      5.45968      6.28916      4.27736         0.029195      0.006163      0.266188
      1.36194      8.64972      4.28410         0.066740     -0.027923      0.431809
      4.08987      8.64977      4.28409        -0.067677     -0.028862      0.431927
      1.35472      0.77912      6.35455        -0.084506      0.068628     -0.520465
      4.09691      0.77916      6.35458         0.084575      0.068396     -0.519606
     -0.00778      3.13494      6.36198        -0.089885     -0.108384     -0.323346
      2.72581      3.08399      6.32510         0.000135     -0.325319     -0.513330
      6.81478      0.79201      6.35208         0.094995      0.022830     -0.487651
      9.54029      0.79205      6.35207        -0.094524      0.023447     -0.486719
      5.45939      3.13498      6.36203         0.088475     -0.107956     -0.323813
      8.17755      3.15226      6.35979         0.001235     -0.055423     -0.169294
     -1.35078      5.50962      6.35467        -0.104983      0.023430     -0.496305
      1.39322      5.49869      6.43015         0.131872     -0.052810     -0.451999
     -2.72584      7.85440      6.35640         0.000645     -0.143106     -0.593657
     -0.00427      7.87579      6.35166        -0.023099      0.109477     -0.329514
      4.05801      5.49867      6.43058        -0.132815     -0.054113     -0.452749
      6.80235      5.50963      6.35472         0.104560      0.024479     -0.495819
      2.72586      7.93375      6.34287         0.001155      0.432411     -0.608745
      5.45591      7.87572      6.35170         0.021073      0.108990     -0.329056
      2.72511      5.47708      8.06639        -0.000135     -0.053857     -0.009239
      2.72475      6.30712      8.66401         0.000550      0.011175      0.048296
      2.72420      4.65426      8.67282         0.001278     -0.047418      0.082007
 -----------------------------------------------------------------------------------
    total drift:                               -0.003065      0.062734      0.052836


--------------------------------------------------------------------------------------------------------



  FREE ENERGIE OF THE ION-ELECTRON SYSTEM (eV)
  ---------------------------------------------------
  free  energy   TOTEN  =      -577.40757477 eV

  energy  without entropy=     -577.38265929  energy(sigma->0) =     -577.39511703
 


--------------------------------------------------------------------------------------------------------


    POTLOK:  cpu time      0.0810: real time      0.0815


--------------------------------------------------------------------------------------------------------


 Finite differences:
   Step               POTIM =   1.500000000000000E-002
   Degrees of freedom DOF   =            9
  LATTYP: Found a hexagonal cell.
 ALAT       =    10.9034004211
 C/A-ratio  =     1.6006841223
  
  Lattice vectors:
  
 A1 = (  10.9034004211,   0.0000000000,   0.0000000000)
 A2 = (  -5.4517002106,   9.4426217523,   0.0000000000)
 A3 = (   0.0000000000,   0.0000000000,  17.4528999329)


Analysis of symmetry for initial positions (statically):
=====================================================================
 Subroutine PRICEL returns:
 Original cell was already a primitive cell.
 

 Routine SETGRP: Setting up the symmetry group for a 
 hexagonal supercell.


 Subroutine GETGRP returns: Found  1 space group operations
 (whereof  1 operations were pure point group operations)
 out of a pool of 24 trial point group operations.


The static configuration has the point symmetry C_1 .


Analysis of symmetry for dynamics (positions and initial velocities):
=====================================================================
 Subroutine PRICEL returns:
 Original cell was already a primitive cell.
 

 Routine SETGRP: Setting up the symmetry group for a 
 hexagonal supercell.


 Subroutine GETGRP returns: Found  1 space group operations
 (whereof  1 operations were pure point group operations)
 out of a pool of 24 trial point group operations.


The dynamic configuration has the point symmetry C_1 .


Analysis of constrained symmetry for selective dynamics:
=====================================================================
 Subroutine PRICEL returns:
 Original cell was already a primitive cell.
 

 Routine SETGRP: Setting up the symmetry group for a 
 hexagonal supercell.


 Subroutine GETGRP returns: Found  1 space group operations
 (whereof  1 operations were pure point group operations)
 out of a pool of 24 trial point group operations.


The constrained configuration has the point symmetry C_1 .


 Subroutine INISYM returns: Found  1 space group operations
 (whereof  1 operations are pure point group operations),
 and found     1 'primitive' translations

 
 KPOINTS: Kpoints                                 

Automatic generation of k-mesh.
 Grid dimensions read from file:
 generate k-points for:    1    1    1

 Generating k-lattice:

  Cartesian coordinates                     Fractional coordinates (reciprocal lattice)
     0.091714508  0.052951396  0.000000000     1.000000000  0.000000000  0.000000000
     0.000000000  0.105902791  0.000000000     0.000000000  1.000000000  0.000000000
     0.000000000  0.000000000  0.057297068     0.000000000  0.000000000  1.000000000

  Length of vectors
     0.105902791  0.105902791  0.057297068

  Shift w.r.t. Gamma in fractional coordinates (k-lattice)
     0.000000000  0.000000000  0.000000000

 
 Subroutine IBZKPT returns following result:
 ===========================================
 
 Found      1 irreducible k-points:
 
 Following reciprocal coordinates:
            Coordinates               Weight
  0.000000  0.000000  0.000000      1.000000
 
 Following cartesian coordinates:
            Coordinates               Weight
  0.000000  0.000000  0.000000      1.000000
 
    WAVPRE:  cpu time      0.0565: real time      0.0746
    FEWALD:  cpu time      0.0018: real time      0.0018
    ORTHCH:  cpu time      0.3784: real time      3.3517
     LOOP+:  cpu time     90.8925: real time    101.5001


--------------------------------------- Ionic step        2  -------------------------------------------




--------------------------------------- Iteration      2(   1)  ---------------------------------------


    POTLOK:  cpu time      0.0520: real time      0.0527
    SETDIJ:  cpu time      0.0089: real time      0.0089
     EDDAV:  cpu time      2.7807: real time      4.6195
       DOS:  cpu time      0.0005: real time      0.0005
    CHARGE:  cpu time      0.1237: real time      0.1244
    MIXING:  cpu time      0.0069: real time      0.0071
    --------------------------------------------
      LOOP:  cpu time      2.9728: real time      4.8131

 eigenvalue-minimisations  :   672
 total energy-change (2. order) : 0.9933866E-03  (-0.9550999E-01)
 number of electron     518.9999648 magnetization 
 augmentation part      175.9476112 magnetization 

  free energy =  -0.577406575608E+03  energy without entropy=  -0.577381661265E+03


--------------------------------------------------------------------------------------------------------




--------------------------------------- Iteration      2(   2)  ---------------------------------------


    POTLOK:  cpu time      0.0649: real time      0.0656
    SETDIJ:  cpu time      0.0089: real time      0.0089
    EDDIAG:  cpu time      0.4828: real time      0.9837
  RMM-DIIS:  cpu time      1.1530: real time      1.1583
    ORTHCH:  cpu time      0.1171: real time      0.1176
       DOS:  cpu time      0.0016: real time      0.0016
    CHARGE:  cpu time      0.1242: real time      0.1247
    MIXING:  cpu time      0.0020: real time      0.0020
    --------------------------------------------
      LOOP:  cpu time      1.9545: real time      2.4624

 eigenvalue-minimisations  :   641
 total energy-change (2. order) :-0.7499973E-04  (-0.3660302E-03)
 number of electron     518.9999648 magnetization 
 augmentation part      175.9463123 magnetization 

 eigenvalues of (default mixing * dielectric matrix)
  average eigenvalue GAMMA=   1.5165
  1.5165

  free energy =  -0.577406650607E+03  energy without entropy=  -0.577381729967E+03


--------------------------------------------------------------------------------------------------------




--------------------------------------- Iteration      2(   3)  ---------------------------------------


    POTLOK:  cpu time      0.0594: real time      0.0602
    SETDIJ:  cpu time      0.0086: real time      0.0087
    EDDIAG:  cpu time      0.8324: real time      0.8360
  RMM-DIIS:  cpu time      1.2341: real time      1.2396
    ORTHCH:  cpu time      0.1115: real time      0.1121
       DOS:  cpu time      0.0014: real time      0.0014
    CHARGE:  cpu time      0.1239: real time      0.1245
    MIXING:  cpu time      0.0019: real time      0.0019
    --------------------------------------------
      LOOP:  cpu time      2.3734: real time      2.3844

 eigenvalue-minimisations  :   676
 total energy-change (2. order) :-0.1292186E-02  (-0.2300057E-03)
 number of electron     518.9999648 magnetization 
 augmentation part      175.9536661 magnetization 

 eigenvalues of (default mixing * dielectric matrix)
  average eigenvalue GAMMA=   1.2532
  2.3775  0.1289

  free energy =  -0.577407942793E+03  energy without entropy=  -0.577383491920E+03


--------------------------------------------------------------------------------------------------------




--------------------------------------- Iteration      2(   4)  ---------------------------------------


    POTLOK:  cpu time      0.0626: real time      0.0633
    SETDIJ:  cpu time      0.0088: real time      0.0088
    EDDIAG:  cpu time      0.4218: real time      0.4624
  RMM-DIIS:  cpu time      1.0844: real time      1.0891
    ORTHCH:  cpu time      0.1134: real time      0.1140
       DOS:  cpu time      0.0015: real time      0.0015
    CHARGE:  cpu time      0.1156: real time      0.1162
    MIXING:  cpu time      0.0018: real time      0.0018
    --------------------------------------------
      LOOP:  cpu time      1.8097: real time      1.8572

 eigenvalue-minimisations  :   645
 total energy-change (2. order) : 0.5927059E-03  (-0.1351294E-03)
 number of electron     518.9999648 magnetization 
 augmentation part      175.9416349 magnetization 

 eigenvalues of (default mixing * dielectric matrix)
  average eigenvalue GAMMA=   0.9522
  2.5236  0.2407  0.0923

  free energy =  -0.577407350087E+03  energy without entropy=  -0.577382655271E+03


--------------------------------------------------------------------------------------------------------




--------------------------------------- Iteration      2(   5)  ---------------------------------------


    POTLOK:  cpu time      0.0550: real time      0.0590
    SETDIJ:  cpu time      0.0085: real time      0.0086
    EDDIAG:  cpu time      0.6819: real time      0.6859
  RMM-DIIS:  cpu time      1.0633: real time      1.0690
    ORTHCH:  cpu time      0.1015: real time      0.1021
       DOS:  cpu time      0.0016: real time      0.0016
    CHARGE:  cpu time      0.1162: real time      0.1168
    MIXING:  cpu time      0.0019: real time      0.0019
    --------------------------------------------
      LOOP:  cpu time      2.0298: real time      2.0448

 eigenvalue-minimisations  :   658
 total energy-change (2. order) : 0.4302523E-03  (-0.6128310E-04)
 number of electron     518.9999648 magnetization 
 augmentation part      175.9578428 magnetization 

 eigenvalues of (default mixing * dielectric matrix)
  average eigenvalue GAMMA=   0.7669
  2.4979  0.3343  0.1532  0.0824

  free energy =  -0.577406919835E+03  energy without entropy=  -0.577382144135E+03


--------------------------------------------------------------------------------------------------------




--------------------------------------- Iteration      2(   6)  ---------------------------------------


    POTLOK:  cpu time      0.0607: real time      0.0616
    SETDIJ:  cpu time      0.0084: real time      0.0084
    EDDIAG:  cpu time      0.4102: real time      0.4140
  RMM-DIIS:  cpu time      1.1543: real time      1.1605
    ORTHCH:  cpu time      0.1152: real time      0.1157
       DOS:  cpu time      0.0016: real time      0.0016
    CHARGE:  cpu time      0.1198: real time      0.1204
    MIXING:  cpu time      0.0020: real time      0.0020
    --------------------------------------------
      LOOP:  cpu time      1.8722: real time      1.8844

 eigenvalue-minimisations  :   701
 total energy-change (2. order) : 0.1673573E-03  (-0.2610601E-04)
 number of electron     518.9999648 magnetization 
 augmentation part      175.9386214 magnetization 

 eigenvalues of (default mixing * dielectric matrix)
  average eigenvalue GAMMA=   0.6715
  2.3805  0.5976  0.2099  0.1050  0.0643

  free energy =  -0.577406752478E+03  energy without entropy=  -0.577381857570E+03


--------------------------------------------------------------------------------------------------------




--------------------------------------- Iteration      2(   7)  ---------------------------------------


    POTLOK:  cpu time      0.0706: real time      0.0713
    SETDIJ:  cpu time      0.0086: real time      0.0087
    EDDIAG:  cpu time      0.4279: real time      0.4303
  RMM-DIIS:  cpu time      1.2292: real time      1.2348
    ORTHCH:  cpu time      0.1232: real time      0.1237
       DOS:  cpu time      0.0018: real time      0.0018
    CHARGE:  cpu time      0.1241: real time      0.1246
    MIXING:  cpu time      0.0022: real time      0.0022
    --------------------------------------------
      LOOP:  cpu time      1.9876: real time      1.9975

 eigenvalue-minimisations  :   677
 total energy-change (2. order) : 0.7635685E-04  (-0.1250411E-04)
 number of electron     518.9999648 magnetization 
 augmentation part      175.9529269 magnetization 

 eigenvalues of (default mixing * dielectric matrix)
  average eigenvalue GAMMA=   0.6212
  2.2209  0.9663  0.2392  0.1511  0.0943  0.0556

  free energy =  -0.577406676121E+03  energy without entropy=  -0.577381762554E+03


--------------------------------------------------------------------------------------------------------




--------------------------------------- Iteration      2(   8)  ---------------------------------------


    POTLOK:  cpu time      0.0604: real time      0.0611
    SETDIJ:  cpu time      0.0095: real time      0.0095
    EDDIAG:  cpu time      0.4405: real time      0.4453
  RMM-DIIS:  cpu time      1.0357: real time      1.0402
    ORTHCH:  cpu time      0.1069: real time      0.1074
       DOS:  cpu time      0.0019: real time      0.0019
    CHARGE:  cpu time      0.1268: real time      0.1273
    MIXING:  cpu time      0.0022: real time      0.0022
    --------------------------------------------
      LOOP:  cpu time      1.7838: real time      1.7949

 eigenvalue-minimisations  :   554
 total energy-change (2. order) : 0.3263180E-04  (-0.6117971E-05)
 number of electron     518.9999648 magnetization 
 augmentation part      175.9446826 magnetization 

 eigenvalues of (default mixing * dielectric matrix)
  average eigenvalue GAMMA=   0.5777
  2.1166  1.2077  0.2651  0.1918  0.1159  0.0912  0.0554

  free energy =  -0.577406643489E+03  energy without entropy=  -0.577381741735E+03


--------------------------------------------------------------------------------------------------------




--------------------------------------- Iteration      2(   9)  ---------------------------------------


    POTLOK:  cpu time      0.0610: real time      0.0617
    SETDIJ:  cpu time      0.0091: real time      0.0091
    EDDIAG:  cpu time      0.4454: real time      0.4475
  RMM-DIIS:  cpu time      0.8110: real time      0.8145
    ORTHCH:  cpu time      0.1131: real time      0.1136
       DOS:  cpu time      0.0014: real time      0.0014
    CHARGE:  cpu time      0.1236: real time      0.1242
    MIXING:  cpu time      0.0023: real time      0.0023
    --------------------------------------------
      LOOP:  cpu time      1.5669: real time      1.5743

 eigenvalue-minimisations  :   402
 total energy-change (2. order) : 0.1614819E-04  (-0.2413245E-05)
 number of electron     518.9999648 magnetization 
 augmentation part      175.9490408 magnetization 

 eigenvalues of (default mixing * dielectric matrix)
  average eigenvalue GAMMA=   0.5599
  2.0448  1.4160  0.3482  0.2622  0.1636  0.1033  0.0865  0.0550

  free energy =  -0.577406627341E+03  energy without entropy=  -0.577381701071E+03


--------------------------------------------------------------------------------------------------------




--------------------------------------- Iteration      2(  10)  ---------------------------------------


    POTLOK:  cpu time      0.0590: real time      0.0597
    SETDIJ:  cpu time      0.0084: real time      0.0085
    EDDIAG:  cpu time      0.4186: real time      0.4219
  RMM-DIIS:  cpu time      0.7540: real time      0.7579
    ORTHCH:  cpu time      0.1021: real time      0.1026
       DOS:  cpu time      0.0017: real time      0.0016
    --------------------------------------------
      LOOP:  cpu time      1.3437: real time      1.3523

 eigenvalue-minimisations  :   368
 total energy-change (2. order) : 0.4171794E-05  (-0.1204242E-05)
 number of electron     518.9999648 magnetization 
 augmentation part      175.9490408 magnetization 

  free energy =  -0.577406623169E+03  energy without entropy=  -0.577381701010E+03


--------------------------------------------------------------------------------------------------------




------------------------ aborting loop because EDIFF is reached ----------------------------------------





 total charge

# of ion       s       p       d       tot
------------------------------------------
    1        0.610   0.534   6.499   7.643
    2        0.610   0.531   6.506   7.647
    3        0.608   0.536   6.497   7.641
    4        0.605   0.532   6.508   7.646
    5        0.610   0.534   6.499   7.643
    6        0.609   0.534   6.497   7.640
    7        0.605   0.532   6.508   7.645
    8        0.608   0.536   6.499   7.643
    9        0.608   0.533   6.505   7.646
   10        0.605   0.536   6.504   7.645
   11        0.607   0.536   6.502   7.644
   12        0.607   0.536   6.502   7.645
   13        0.604   0.540   6.496   7.640
   14        0.605   0.536   6.504   7.645
   15        0.609   0.535   6.499   7.643
   16        0.609   0.535   6.499   7.643
   17        0.632   0.774   6.570   7.976
   18        0.632   0.774   6.570   7.976
   19        0.630   0.774   6.568   7.972
   20        0.629   0.770   6.560   7.959
   21        0.630   0.771   6.571   7.972
   22        0.630   0.771   6.571   7.972
   23        0.630   0.774   6.568   7.972
   24        0.631   0.772   6.572   7.975
   25        0.631   0.774   6.568   7.973
   26        0.631   0.774   6.568   7.973
   27        0.629   0.774   6.564   7.966
   28        0.632   0.774   6.564   7.970
   29        0.631   0.774   6.568   7.974
   30        0.631   0.774   6.568   7.973
   31        0.630   0.776   6.564   7.969
   32        0.632   0.774   6.564   7.970
   33        0.642   0.806   6.594   8.041
   34        0.647   0.817   6.589   8.053
   35        0.642   0.805   6.594   8.041
   36        0.639   0.794   6.582   8.015
   37        0.642   0.806   6.594   8.041
   38        0.642   0.799   6.596   8.036
   39        0.639   0.794   6.582   8.015
   40        0.642   0.805   6.594   8.041
   41        0.644   0.805   6.589   8.037
   42        0.643   0.796   6.594   8.033
   43        0.643   0.802   6.597   8.042
   44        0.643   0.802   6.597   8.042
   45        0.633   0.790   6.568   7.991
   46        0.643   0.796   6.594   8.033
   47        0.645   0.807   6.591   8.043
   48        0.645   0.807   6.591   8.042
   49        0.625   0.570   6.543   7.737
   50        0.625   0.570   6.541   7.736
   51        0.623   0.551   6.545   7.720
   52        0.623   0.561   6.574   7.759
   53        0.629   0.571   6.545   7.744
   54        0.629   0.571   6.543   7.743
   55        0.623   0.551   6.546   7.720
   56        0.626   0.552   6.537   7.715
   57        0.622   0.550   6.547   7.718
   58        0.597   0.653   6.549   7.800
   59        0.617   0.556   6.546   7.719
   60        0.623   0.552   6.545   7.720
   61        0.599   0.661   6.552   7.812
   62        0.622   0.550   6.546   7.718
   63        0.625   0.553   6.572   7.750
   64        0.623   0.552   6.545   7.720
   65        1.218   2.628   0.000   3.846
   66        0.633   0.082   0.000   0.715
   67        0.635   0.082   0.000   0.718
--------------------------------------------------
tot         42.499  45.677 419.321 507.497
 
    CHARGE:  cpu time      0.1241: real time      0.1247
    FORLOC:  cpu time      0.0152: real time      0.0153
    FORNL :  cpu time      0.5188: real time      0.5214
    STRESS:  cpu time      1.5318: real time      1.5392
    FORCOR:  cpu time      0.0604: real time      0.0608
    FORHAR:  cpu time      0.0255: real time      0.0256
    MIXING:  cpu time      0.0018: real time      0.0018
    OFIELD:  cpu time      0.0000: real time      0.0000

  FORCE on cell =-STRESS in cart. coord.  units (eV):
  Direction    XX          YY          ZZ          XY          YZ          ZX
  --------------------------------------------------------------------------------------
  Alpha Z  1067.80299  1067.80299  1067.80299
  Ewald   80372.18358 80401.76017************     0.08862     1.18261    -2.58998
  Hartree 87885.75403 87886.43481-86362.86640     0.01001     0.55781    -0.58033
  E(xc)   -2442.56146 -2442.03190 -2432.90366    -0.00015     0.06343    -0.00023
  Local  ************************181896.22943    -0.08303    -0.74584     2.77779
  n-local   693.94577   694.32031   587.40218     0.02056    -0.72115    -0.12595
  augment  2920.19864  2918.43748  2845.50390    -0.01044    -0.24871     0.03688
  Kinetic  6147.25548  6126.12915  6053.88067    -0.03214    -0.79345     0.37532
  Fock        0.00000     0.00000     0.00000     0.00000     0.00000     0.00000
  -------------------------------------------------------------------------------------
  Total     -63.02082   -66.11269   -53.61554    -0.00657    -0.70529    -0.10649
  in kB     -56.19174   -58.94857   -47.80564    -0.00586    -0.62887    -0.09495
  external pressure =      -54.32 kB  Pullay stress =        0.00 kB



--------------------------------------------------------------------------------------------------------



  FREE ENERGIE OF THE ION-ELECTRON SYSTEM (eV)
  ---------------------------------------------------
  free  energy   TOTEN  =      -577.40662317 eV

  energy  without entropy=     -577.38170101  energy(sigma->0) =     -577.39416209
 
 d Force =-0.9720267E-03[-0.194E-02,-0.203E-05]  d Energy =-0.9516001E-03-0.204E-04
 d Force = 0.1006775E-01[ 0.190E-01, 0.111E-02]  d Ewald  = 0.1007055E-01-0.280E-05


--------------------------------------------------------------------------------------------------------


    POTLOK:  cpu time      0.0787: real time      0.0792


--------------------------------------------------------------------------------------------------------


 Finite differences progress:
  Degree of freedom:   1/  9
  Displacement:        1/  2
  Total:               1/ 18
  LATTYP: Found a hexagonal cell.
 ALAT       =    10.9034004211
 C/A-ratio  =     1.6006841223
  
  Lattice vectors:
  
 A1 = (  10.9034004211,   0.0000000000,   0.0000000000)
 A2 = (  -5.4517002106,   9.4426217523,   0.0000000000)
 A3 = (   0.0000000000,   0.0000000000,  17.4528999329)


Analysis of symmetry for initial positions (statically):
=====================================================================
 Subroutine PRICEL returns:
 Original cell was already a primitive cell.
 

 Routine SETGRP: Setting up the symmetry group for a 
 hexagonal supercell.


 Subroutine GETGRP returns: Found  1 space group operations
 (whereof  1 operations were pure point group operations)
 out of a pool of 24 trial point group operations.


The static configuration has the point symmetry C_1 .


Analysis of symmetry for dynamics (positions and initial velocities):
=====================================================================
 Subroutine PRICEL returns:
 Original cell was already a primitive cell.
 

 Routine SETGRP: Setting up the symmetry group for a 
 hexagonal supercell.


 Subroutine GETGRP returns: Found  1 space group operations
 (whereof  1 operations were pure point group operations)
 out of a pool of 24 trial point group operations.


The dynamic configuration has the point symmetry C_1 .


Analysis of constrained symmetry for selective dynamics:
=====================================================================
 Subroutine PRICEL returns:
 Original cell was already a primitive cell.
 

 Routine SETGRP: Setting up the symmetry group for a 
 hexagonal supercell.


 Subroutine GETGRP returns: Found  1 space group operations
 (whereof  1 operations were pure point group operations)
 out of a pool of 24 trial point group operations.


The constrained configuration has the point symmetry C_1 .


 Subroutine INISYM returns: Found  1 space group operations
 (whereof  1 operations are pure point group operations),
 and found     1 'primitive' translations

 
 KPOINTS: Kpoints                                 

Automatic generation of k-mesh.
 Grid dimensions read from file:
 generate k-points for:    1    1    1

 Generating k-lattice:

  Cartesian coordinates                     Fractional coordinates (reciprocal lattice)
     0.091714508  0.052951396  0.000000000     1.000000000  0.000000000  0.000000000
     0.000000000  0.105902791  0.000000000     0.000000000  1.000000000  0.000000000
     0.000000000  0.000000000  0.057297068     0.000000000  0.000000000  1.000000000

  Length of vectors
     0.105902791  0.105902791  0.057297068

  Shift w.r.t. Gamma in fractional coordinates (k-lattice)
     0.000000000  0.000000000  0.000000000

 
 Subroutine IBZKPT returns following result:
 ===========================================
 
 Found      1 irreducible k-points:
 
 Following reciprocal coordinates:
            Coordinates               Weight
  0.000000  0.000000  0.000000      1.000000
 
 Following cartesian coordinates:
            Coordinates               Weight
  0.000000  0.000000  0.000000      1.000000
 
    WAVPRE:  cpu time      0.0562: real time      0.0892
    FEWALD:  cpu time      0.0014: real time      0.0014
    ORTHCH:  cpu time      0.3938: real time      3.3727
     LOOP+:  cpu time     22.5454: real time     28.0420


--------------------------------------- Ionic step        3  -------------------------------------------




--------------------------------------- Iteration      3(   1)  ---------------------------------------


    POTLOK:  cpu time      0.0604: real time      0.0611
    SETDIJ:  cpu time      0.0087: real time      0.0087
     EDDAV:  cpu time      2.5527: real time      3.6923
       DOS:  cpu time      0.0005: real time      0.0005
    CHARGE:  cpu time      0.1266: real time      0.1272
    MIXING:  cpu time      0.0037: real time      0.0037
    --------------------------------------------
      LOOP:  cpu time      2.7526: real time      3.8936

 eigenvalue-minimisations  :   640
 total energy-change (2. order) : 0.2797385E-03  (-0.3813216E+00)
 number of electron     518.9999648 magnetization 
 augmentation part      175.9504013 magnetization 

  free energy =  -0.577406347602E+03  energy without entropy=  -0.577381446360E+03


--------------------------------------------------------------------------------------------------------




--------------------------------------- Iteration      3(   2)  ---------------------------------------


    POTLOK:  cpu time      0.0672: real time      0.0680
    SETDIJ:  cpu time      0.0088: real time      0.0088
    EDDIAG:  cpu time      0.4309: real time      0.4330
  RMM-DIIS:  cpu time      1.1169: real time      1.1220
    ORTHCH:  cpu time      0.1070: real time      0.1075
       DOS:  cpu time      0.0018: real time      0.0018
    CHARGE:  cpu time      0.1213: real time      0.1219
    MIXING:  cpu time      0.0018: real time      0.0018
    --------------------------------------------
      LOOP:  cpu time      1.8558: real time      1.8648

 eigenvalue-minimisations  :   642
 total energy-change (2. order) :-0.7087895E-03  (-0.1586489E-02)
 number of electron     518.9999648 magnetization 
 augmentation part      175.9192191 magnetization 

 eigenvalues of (default mixing * dielectric matrix)
  average eigenvalue GAMMA=   0.6979
  0.6979

  free energy =  -0.577407056392E+03  energy without entropy=  -0.577382101669E+03


--------------------------------------------------------------------------------------------------------




--------------------------------------- Iteration      3(   3)  ---------------------------------------


    POTLOK:  cpu time      0.0608: real time      0.0616
    SETDIJ:  cpu time      0.0088: real time      0.0089
    EDDIAG:  cpu time      0.4334: real time      0.4358
  RMM-DIIS:  cpu time      1.1249: real time      1.1305
    ORTHCH:  cpu time      0.1019: real time      0.1024
       DOS:  cpu time      0.0017: real time      0.0017
    CHARGE:  cpu time      0.1227: real time      0.1232
    MIXING:  cpu time      0.0019: real time      0.0019
    --------------------------------------------
      LOOP:  cpu time      1.8561: real time      1.8659

 eigenvalue-minimisations  :   685
 total energy-change (2. order) :-0.3921043E-02  (-0.6306179E-03)
 number of electron     518.9999649 magnetization 
 augmentation part      176.0436764 magnetization 

 eigenvalues of (default mixing * dielectric matrix)
  average eigenvalue GAMMA=   1.0916
  2.0834  0.0997

  free energy =  -0.577410977434E+03  energy without entropy=  -0.577388009436E+03


--------------------------------------------------------------------------------------------------------




--------------------------------------- Iteration      3(   4)  ---------------------------------------


    POTLOK:  cpu time      0.0596: real time      0.0603
    SETDIJ:  cpu time      0.0085: real time      0.0085
    EDDIAG:  cpu time      0.4136: real time      0.4156
  RMM-DIIS:  cpu time      1.1830: real time      1.1877
    ORTHCH:  cpu time      0.1095: real time      0.1099
       DOS:  cpu time      0.0016: real time      0.0016
    CHARGE:  cpu time      0.1252: real time      0.1257
    MIXING:  cpu time      0.0020: real time      0.0020
    --------------------------------------------
      LOOP:  cpu time      1.9030: real time      1.9113

 eigenvalue-minimisations  :   691
 total energy-change (2. order) : 0.1313827E-02  (-0.6119184E-03)
 number of electron     518.9999648 magnetization 
 augmentation part      175.9177974 magnetization 

 eigenvalues of (default mixing * dielectric matrix)
  average eigenvalue GAMMA=   0.8974
  2.3953  0.2069  0.0899

  free energy =  -0.577409663608E+03  energy without entropy=  -0.577384934297E+03


--------------------------------------------------------------------------------------------------------




--------------------------------------- Iteration      3(   5)  ---------------------------------------


    POTLOK:  cpu time      0.0601: real time      0.0610
    SETDIJ:  cpu time      0.0085: real time      0.0085
    EDDIAG:  cpu time      0.4296: real time      0.4315
  RMM-DIIS:  cpu time      1.1354: real time      1.1403
    ORTHCH:  cpu time      0.1022: real time      0.1026
       DOS:  cpu time      0.0016: real time      0.0016
    CHARGE:  cpu time      0.1214: real time      0.1219
    MIXING:  cpu time      0.0020: real time      0.0020
    --------------------------------------------
      LOOP:  cpu time      1.8607: real time      1.8694

 eigenvalue-minimisations  :   650
 total energy-change (2. order) : 0.1781012E-02  (-0.2444642E-03)
 number of electron     518.9999648 magnetization 
 augmentation part      175.9438585 magnetization 

 eigenvalues of (default mixing * dielectric matrix)
  average eigenvalue GAMMA=   0.7227
  2.4176  0.2773  0.0863  0.1094

  free energy =  -0.577407882596E+03  energy without entropy=  -0.577383248957E+03


--------------------------------------------------------------------------------------------------------




--------------------------------------- Iteration      3(   6)  ---------------------------------------


    POTLOK:  cpu time      0.0629: real time      0.0635
    SETDIJ:  cpu time      0.0088: real time      0.0088
    EDDIAG:  cpu time      0.4256: real time      0.4278
  RMM-DIIS:  cpu time      1.2167: real time      1.2227
    ORTHCH:  cpu time      0.1002: real time      0.1007
       DOS:  cpu time      0.0015: real time      0.0015
    CHARGE:  cpu time      0.1190: real time      0.1195
    MIXING:  cpu time      0.0020: real time      0.0020
    --------------------------------------------
      LOOP:  cpu time      1.9367: real time      1.9466

 eigenvalue-minimisations  :   687
 total energy-change (2. order) : 0.8161352E-03  (-0.1098571E-03)
 number of electron     518.9999648 magnetization 
 augmentation part      175.9762144 magnetization 

 eigenvalues of (default mixing * dielectric matrix)
  average eigenvalue GAMMA=   0.6358
  2.3683  0.4675  0.1875  0.0903  0.0654

  free energy =  -0.577407066461E+03  energy without entropy=  -0.577382438821E+03


--------------------------------------------------------------------------------------------------------




--------------------------------------- Iteration      3(   7)  ---------------------------------------


    POTLOK:  cpu time      0.0710: real time      0.0717
    SETDIJ:  cpu time      0.0086: real time      0.0087
    EDDIAG:  cpu time      0.4231: real time      0.7312
  RMM-DIIS:  cpu time      1.1993: real time      1.2046
    ORTHCH:  cpu time      0.0997: real time      0.1002
       DOS:  cpu time      0.0016: real time      0.0016
    CHARGE:  cpu time      0.1166: real time      0.1172
    MIXING:  cpu time      0.0020: real time      0.0020
    --------------------------------------------
      LOOP:  cpu time      1.9220: real time      2.2371

 eigenvalue-minimisations  :   717
 total energy-change (2. order) : 0.1871898E-03  (-0.6688272E-04)
 number of electron     518.9999648 magnetization 
 augmentation part      175.9300967 magnetization 

 eigenvalues of (default mixing * dielectric matrix)
  average eigenvalue GAMMA=   0.6035
  2.2280  0.8970  0.2278  0.1209  0.0884  0.0590

  free energy =  -0.577406879271E+03  energy without entropy=  -0.577381920819E+03


--------------------------------------------------------------------------------------------------------




--------------------------------------- Iteration      3(   8)  ---------------------------------------


    POTLOK:  cpu time      0.0583: real time      0.0590
    SETDIJ:  cpu time      0.0098: real time      0.0099
    EDDIAG:  cpu time      0.4014: real time      0.4033
  RMM-DIIS:  cpu time      1.0577: real time      1.0621
    ORTHCH:  cpu time      0.1188: real time      0.1192
       DOS:  cpu time      0.0017: real time      0.0017
    CHARGE:  cpu time      0.1219: real time      0.1223
    MIXING:  cpu time      0.0022: real time      0.0022
    --------------------------------------------
      LOOP:  cpu time      1.7718: real time      1.7798

 eigenvalue-minimisations  :   651
 total energy-change (2. order) : 0.1600858E-03  (-0.2630051E-04)
 number of electron     518.9999648 magnetization 
 augmentation part      175.9534001 magnetization 

 eigenvalues of (default mixing * dielectric matrix)
  average eigenvalue GAMMA=   0.5731
  2.1614  1.1058  0.2712  0.2168  0.1116  0.0868  0.0581

  free energy =  -0.577406719185E+03  energy without entropy=  -0.577381836917E+03


--------------------------------------------------------------------------------------------------------




--------------------------------------- Iteration      3(   9)  ---------------------------------------


    POTLOK:  cpu time      0.0661: real time      0.0667
    SETDIJ:  cpu time      0.0090: real time      0.0090
    EDDIAG:  cpu time      0.4355: real time      0.4374
  RMM-DIIS:  cpu time      1.0423: real time      1.0465
    ORTHCH:  cpu time      0.1253: real time      0.1258
       DOS:  cpu time      0.0018: real time      0.0018
    CHARGE:  cpu time      0.1245: real time      0.1251
    MIXING:  cpu time      0.0023: real time      0.0023
    --------------------------------------------
      LOOP:  cpu time      1.8067: real time      1.8145

 eigenvalue-minimisations  :   621
 total energy-change (2. order) : 0.6179846E-04  (-0.1070461E-04)
 number of electron     518.9999648 magnetization 
 augmentation part      175.9439716 magnetization 

 eigenvalues of (default mixing * dielectric matrix)
  average eigenvalue GAMMA=   0.5630
  2.1361  1.2680  0.4461  0.2371  0.1647  0.1070  0.0868  0.0580

  free energy =  -0.577406657387E+03  energy without entropy=  -0.577381747280E+03


--------------------------------------------------------------------------------------------------------




--------------------------------------- Iteration      3(  10)  ---------------------------------------


    POTLOK:  cpu time      0.0617: real time      0.0624
    SETDIJ:  cpu time      0.0090: real time      0.0090
    EDDIAG:  cpu time      0.4347: real time      0.4366
  RMM-DIIS:  cpu time      0.9610: real time      0.9645
    ORTHCH:  cpu time      0.1274: real time      0.1280
       DOS:  cpu time      0.0018: real time      0.0018
    CHARGE:  cpu time      0.1272: real time      0.1277
    MIXING:  cpu time      0.0024: real time      0.0024
    --------------------------------------------
      LOOP:  cpu time      1.7252: real time      1.7324

 eigenvalue-minimisations  :   533
 total energy-change (2. order) : 0.1537160E-04  (-0.5169496E-05)
 number of electron     518.9999648 magnetization 
 augmentation part      175.9485411 magnetization 

 eigenvalues of (default mixing * dielectric matrix)
  average eigenvalue GAMMA=   0.5850
  2.1424  1.5624  0.7098  0.2568  0.2141  0.0580  0.1319  0.0866  0.1035

  free energy =  -0.577406642015E+03  energy without entropy=  -0.577381679417E+03


--------------------------------------------------------------------------------------------------------




--------------------------------------- Iteration      3(  11)  ---------------------------------------


    POTLOK:  cpu time      0.0621: real time      0.0628
    SETDIJ:  cpu time      0.0092: real time      0.0092
    EDDIAG:  cpu time      0.4373: real time      0.4393
  RMM-DIIS:  cpu time      0.8971: real time      0.9019
    ORTHCH:  cpu time      0.1061: real time      0.1067
       DOS:  cpu time      0.0017: real time      0.0017
    --------------------------------------------
      LOOP:  cpu time      1.5137: real time      1.5217

 eigenvalue-minimisations  :   466
 total energy-change (2. order) :-0.3136709E-05  (-0.3771599E-05)
 number of electron     518.9999648 magnetization 
 augmentation part      175.9485411 magnetization 

  free energy =  -0.577406645152E+03  energy without entropy=  -0.577381829807E+03


--------------------------------------------------------------------------------------------------------




------------------------ aborting loop because EDIFF is reached ----------------------------------------





 total charge

# of ion       s       p       d       tot
------------------------------------------
    1        0.610   0.534   6.499   7.643
    2        0.610   0.531   6.504   7.645
    3        0.608   0.536   6.500   7.644
    4        0.605   0.532   6.505   7.642
    5        0.610   0.534   6.501   7.645
    6        0.610   0.534   6.497   7.641
    7        0.605   0.532   6.509   7.647
    8        0.608   0.536   6.496   7.640
    9        0.608   0.533   6.505   7.645
   10        0.605   0.536   6.504   7.645
   11        0.607   0.536   6.502   7.644
   12        0.607   0.536   6.499   7.642
   13        0.604   0.540   6.496   7.640
   14        0.605   0.536   6.505   7.646
   15        0.609   0.535   6.498   7.642
   16        0.609   0.535   6.498   7.642
   17        0.632   0.774   6.569   7.975
   18        0.632   0.774   6.570   7.976
   19        0.630   0.774   6.567   7.972
   20        0.629   0.770   6.560   7.959
   21        0.630   0.771   6.571   7.971
   22        0.630   0.771   6.572   7.972
   23        0.630   0.774   6.568   7.972
   24        0.631   0.772   6.572   7.975
   25        0.631   0.774   6.568   7.973
   26        0.631   0.774   6.568   7.973
   27        0.629   0.774   6.564   7.966
   28        0.632   0.774   6.564   7.970
   29        0.631   0.774   6.568   7.973
   30        0.631   0.774   6.568   7.973
   31        0.630   0.776   6.563   7.969
   32        0.632   0.774   6.564   7.970
   33        0.642   0.806   6.594   8.041
   34        0.647   0.817   6.589   8.053
   35        0.642   0.805   6.594   8.041
   36        0.639   0.794   6.581   8.015
   37        0.642   0.806   6.593   8.041
   38        0.642   0.799   6.595   8.036
   39        0.639   0.794   6.583   8.016
   40        0.642   0.805   6.594   8.041
   41        0.644   0.804   6.589   8.037
   42        0.643   0.796   6.594   8.033
   43        0.643   0.802   6.597   8.042
   44        0.643   0.802   6.597   8.042
   45        0.633   0.790   6.568   7.991
   46        0.643   0.796   6.594   8.032
   47        0.645   0.807   6.591   8.042
   48        0.645   0.807   6.591   8.043
   49        0.625   0.570   6.540   7.735
   50        0.625   0.570   6.545   7.739
   51        0.623   0.551   6.549   7.723
   52        0.623   0.561   6.575   7.759
   53        0.629   0.571   6.542   7.742
   54        0.629   0.571   6.547   7.746
   55        0.623   0.551   6.547   7.721
   56        0.626   0.552   6.538   7.716
   57        0.622   0.549   6.547   7.718
   58        0.600   0.661   6.553   7.814
   59        0.617   0.556   6.547   7.720
   60        0.622   0.552   6.547   7.722
   61        0.597   0.653   6.549   7.799
   62        0.622   0.549   6.546   7.718
   63        0.625   0.553   6.572   7.750
   64        0.623   0.552   6.547   7.722
   65        1.218   2.628   0.000   3.846
   66        0.633   0.082   0.000   0.715
   67        0.635   0.082   0.000   0.718
--------------------------------------------------
tot         42.498  45.674 419.330 507.501
 
    CHARGE:  cpu time      0.1241: real time      0.1248
    FORLOC:  cpu time      0.0155: real time      0.0156
    FORNL :  cpu time      0.5254: real time      0.5282
    STRESS:  cpu time      1.5566: real time      1.5649
    FORCOR:  cpu time      0.0720: real time      0.0725
    FORHAR:  cpu time      0.0248: real time      0.0249
    MIXING:  cpu time      0.0021: real time      0.0021
    OFIELD:  cpu time      0.0000: real time      0.0000

  FORCE on cell =-STRESS in cart. coord.  units (eV):
  Direction    XX          YY          ZZ          XY          YZ          ZX
  --------------------------------------------------------------------------------------
  Alpha Z  1067.80299  1067.80299  1067.80299
  Ewald   80372.17635 80401.76465************     0.07727     1.18101     2.53491
  Hartree 87887.62214 87888.32620-86364.68569     0.05678     0.57510     0.59401
  E(xc)   -2442.56154 -2442.03455 -2432.87401    -0.00098     0.06278     0.00029
  Local  ************************181898.51086    -0.14641    -0.77109    -2.74370
  n-local   693.88125   694.24891   587.23553    -0.01292    -0.72001     0.12731
  augment  2920.30776  2918.55613  2845.53725     0.01140    -0.24624    -0.04171
  Kinetic  6147.45693  6126.31302  6053.82768    -0.00096    -0.78892    -0.36204
  Fock        0.00000     0.00000     0.00000     0.00000     0.00000     0.00000
  -------------------------------------------------------------------------------------
  Total     -62.85001   -65.99628   -53.30508    -0.01581    -0.70737     0.10907
  in kB     -56.03944   -58.84477   -47.52882    -0.01410    -0.63072     0.09725
  external pressure =      -54.14 kB  Pullay stress =        0.00 kB



--------------------------------------------------------------------------------------------------------



  FREE ENERGIE OF THE ION-ELECTRON SYSTEM (eV)
  ---------------------------------------------------
  free  energy   TOTEN  =      -577.40664515 eV

  energy  without entropy=     -577.38182981  energy(sigma->0) =     -577.39423748
 
 d Force =-0.2276484E-05[-0.389E-02, 0.388E-02]  d Energy = 0.2198245E-04-0.243E-04
 d Force =-0.2217913E-02[ 0.336E-01,-0.381E-01]  d Ewald  =-0.2220137E-02 0.222E-05


--------------------------------------------------------------------------------------------------------


    POTLOK:  cpu time      0.0619: real time      0.0623


--------------------------------------------------------------------------------------------------------


 Finite differences progress:
  Degree of freedom:   1/  9
  Displacement:        2/  2
  Total:               2/ 18
  LATTYP: Found a hexagonal cell.
 ALAT       =    10.9034004211
 C/A-ratio  =     1.6006841223
  
  Lattice vectors:
  
 A1 = (  10.9034004211,   0.0000000000,   0.0000000000)
 A2 = (  -5.4517002106,   9.4426217523,   0.0000000000)
 A3 = (   0.0000000000,   0.0000000000,  17.4528999329)


Analysis of symmetry for initial positions (statically):
=====================================================================
 Subroutine PRICEL returns:
 Original cell was already a primitive cell.
 

 Routine SETGRP: Setting up the symmetry group for a 
 hexagonal supercell.


 Subroutine GETGRP returns: Found  1 space group operations
 (whereof  1 operations were pure point group operations)
 out of a pool of 24 trial point group operations.


The static configuration has the point symmetry C_1 .


Analysis of symmetry for dynamics (positions and initial velocities):
=====================================================================
 Subroutine PRICEL returns:
 Original cell was already a primitive cell.
 

 Routine SETGRP: Setting up the symmetry group for a 
 hexagonal supercell.


 Subroutine GETGRP returns: Found  1 space group operations
 (whereof  1 operations were pure point group operations)
 out of a pool of 24 trial point group operations.


The dynamic configuration has the point symmetry C_1 .


Analysis of constrained symmetry for selective dynamics:
=====================================================================
 Subroutine PRICEL returns:
 Original cell was already a primitive cell.
 

 Routine SETGRP: Setting up the symmetry group for a 
 hexagonal supercell.


 Subroutine GETGRP returns: Found  1 space group operations
 (whereof  1 operations were pure point group operations)
 out of a pool of 24 trial point group operations.


The constrained configuration has the point symmetry C_1 .


 Subroutine INISYM returns: Found  1 space group operations
 (whereof  1 operations are pure point group operations),
 and found     1 'primitive' translations

 
 KPOINTS: Kpoints                                 

Automatic generation of k-mesh.
 Grid dimensions read from file:
 generate k-points for:    1    1    1

 Generating k-lattice:

  Cartesian coordinates                     Fractional coordinates (reciprocal lattice)
     0.091714508  0.052951396  0.000000000     1.000000000  0.000000000  0.000000000
     0.000000000  0.105902791  0.000000000     0.000000000  1.000000000  0.000000000
     0.000000000  0.000000000  0.057297068     0.000000000  0.000000000  1.000000000

  Length of vectors
     0.105902791  0.105902791  0.057297068

  Shift w.r.t. Gamma in fractional coordinates (k-lattice)
     0.000000000  0.000000000  0.000000000

 
 Subroutine IBZKPT returns following result:
 ===========================================
 
 Found      1 irreducible k-points:
 
 Following reciprocal coordinates:
            Coordinates               Weight
  0.000000  0.000000  0.000000      1.000000
 
 Following cartesian coordinates:
            Coordinates               Weight
  0.000000  0.000000  0.000000      1.000000
 
    WAVPRE:  cpu time      0.0569: real time      0.0647
    FEWALD:  cpu time      0.0022: real time      0.0022
    ORTHCH:  cpu time      0.3882: real time      3.3720
     LOOP+:  cpu time     23.7730: real time     28.3121


--------------------------------------- Ionic step        4  -------------------------------------------




--------------------------------------- Iteration      4(   1)  ---------------------------------------


    POTLOK:  cpu time      0.0518: real time      0.0525
    SETDIJ:  cpu time      0.0084: real time      0.0084
     EDDAV:  cpu time      2.5506: real time      3.6698
       DOS:  cpu time      0.0004: real time      0.0004
    CHARGE:  cpu time      0.1238: real time      0.1246
    MIXING:  cpu time      0.0038: real time      0.0038
    --------------------------------------------
      LOOP:  cpu time      2.7387: real time      3.8596

 eigenvalue-minimisations  :   640
 total energy-change (2. order) : 0.6407358E-02  (-0.1899047E+00)
 number of electron     518.9999649 magnetization 
 augmentation part      175.9456520 magnetization 

  free energy =  -0.577400234657E+03  energy without entropy=  -0.577375313192E+03


--------------------------------------------------------------------------------------------------------




--------------------------------------- Iteration      4(   2)  ---------------------------------------


    POTLOK:  cpu time      0.0604: real time      0.0612
    SETDIJ:  cpu time      0.0097: real time      0.0098
    EDDIAG:  cpu time      0.6507: real time      0.6543
  RMM-DIIS:  cpu time      1.0954: real time      1.1015
    ORTHCH:  cpu time      0.1362: real time      0.1370
       DOS:  cpu time      0.0019: real time      0.0019
    CHARGE:  cpu time      0.1262: real time      0.1269
    MIXING:  cpu time      0.0019: real time      0.0020
    --------------------------------------------
      LOOP:  cpu time      2.0823: real time      2.0945

 eigenvalue-minimisations  :   641
 total energy-change (2. order) :-0.8551351E-03  (-0.1292297E-02)
 number of electron     518.9999649 magnetization 
 augmentation part      175.9560741 magnetization 

 eigenvalues of (default mixing * dielectric matrix)
  average eigenvalue GAMMA=   0.3263
  0.3263

  free energy =  -0.577401089792E+03  energy without entropy=  -0.577376448034E+03


--------------------------------------------------------------------------------------------------------




--------------------------------------- Iteration      4(   3)  ---------------------------------------


    POTLOK:  cpu time      0.0585: real time      0.0632
    SETDIJ:  cpu time      0.0091: real time      0.0092
    EDDIAG:  cpu time      0.4356: real time      0.4382
  RMM-DIIS:  cpu time      1.1821: real time      1.1882
    ORTHCH:  cpu time      0.1050: real time      0.1054
       DOS:  cpu time      0.0017: real time      0.0017
    CHARGE:  cpu time      0.1176: real time      0.1181
    MIXING:  cpu time      0.0019: real time      0.0019
    --------------------------------------------
      LOOP:  cpu time      1.9115: real time      1.9259

 eigenvalue-minimisations  :   668
 total energy-change (2. order) :-0.8567307E-03  (-0.3575191E-03)
 number of electron     518.9999649 magnetization 
 augmentation part      175.9347576 magnetization 

 eigenvalues of (default mixing * dielectric matrix)
  average eigenvalue GAMMA=   0.8991
  1.6979  0.1003

  free energy =  -0.577401946523E+03  energy without entropy=  -0.577377368734E+03


--------------------------------------------------------------------------------------------------------




--------------------------------------- Iteration      4(   4)  ---------------------------------------


    POTLOK:  cpu time      0.0686: real time      0.0697
    SETDIJ:  cpu time      0.0087: real time      0.0088
    EDDIAG:  cpu time      0.4137: real time      0.4155
  RMM-DIIS:  cpu time      1.1457: real time      1.1503
    ORTHCH:  cpu time      0.1052: real time      0.1057
       DOS:  cpu time      0.0016: real time      0.0016
    CHARGE:  cpu time      0.1219: real time      0.1224
    MIXING:  cpu time      0.0019: real time      0.0019
    --------------------------------------------
      LOOP:  cpu time      1.8674: real time      1.8758

 eigenvalue-minimisations  :   691
 total energy-change (2. order) :-0.7400578E-03  (-0.3491300E-03)
 number of electron     518.9999649 magnetization 
 augmentation part      175.9270715 magnetization 

 eigenvalues of (default mixing * dielectric matrix)
  average eigenvalue GAMMA=   0.7681
  2.0443  0.1702  0.0897

  free energy =  -0.577402686580E+03  energy without entropy=  -0.577378266826E+03


--------------------------------------------------------------------------------------------------------




--------------------------------------- Iteration      4(   5)  ---------------------------------------


    POTLOK:  cpu time      0.0725: real time      0.0732
    SETDIJ:  cpu time      0.0083: real time      0.0084
    EDDIAG:  cpu time      0.4200: real time      0.4218
  RMM-DIIS:  cpu time      1.0996: real time      1.1038
    ORTHCH:  cpu time      0.1016: real time      0.1020
       DOS:  cpu time      0.0016: real time      0.0016
    CHARGE:  cpu time      0.1228: real time      0.1232
    MIXING:  cpu time      0.0019: real time      0.0019
    --------------------------------------------
      LOOP:  cpu time      1.8282: real time      1.8359

 eigenvalue-minimisations  :   663
 total energy-change (2. order) : 0.7573772E-03  (-0.1367202E-03)
 number of electron     518.9999649 magnetization 
 augmentation part      175.9904163 magnetization 

 eigenvalues of (default mixing * dielectric matrix)
  average eigenvalue GAMMA=   0.6491
  2.1727  0.2556  0.1020  0.0663

  free energy =  -0.577401929203E+03  energy without entropy=  -0.577377396263E+03


--------------------------------------------------------------------------------------------------------




--------------------------------------- Iteration      4(   6)  ---------------------------------------


    POTLOK:  cpu time      0.0586: real time      0.0591
    SETDIJ:  cpu time      0.0085: real time      0.0086
    EDDIAG:  cpu time      0.4223: real time      0.4242
  RMM-DIIS:  cpu time      1.1259: real time      1.1311
    ORTHCH:  cpu time      0.1189: real time      0.1194
       DOS:  cpu time      0.0016: real time      0.0016
    CHARGE:  cpu time      0.1231: real time      0.1237
    MIXING:  cpu time      0.0020: real time      0.0020
    --------------------------------------------
      LOOP:  cpu time      1.8609: real time      1.8697

 eigenvalue-minimisations  :   677
 total energy-change (2. order) : 0.1098702E-02  (-0.9574935E-04)
 number of electron     518.9999649 magnetization 
 augmentation part      175.9325239 magnetization 

 eigenvalues of (default mixing * dielectric matrix)
  average eigenvalue GAMMA=   0.5984
  2.1975  0.4783  0.1640  0.0959  0.0561

  free energy =  -0.577400830502E+03  energy without entropy=  -0.577375941626E+03


--------------------------------------------------------------------------------------------------------




--------------------------------------- Iteration      4(   7)  ---------------------------------------


    POTLOK:  cpu time      0.0639: real time      0.0647
    SETDIJ:  cpu time      0.0088: real time      0.0089
    EDDIAG:  cpu time      0.4351: real time      0.4372
  RMM-DIIS:  cpu time      1.2153: real time      1.2212
    ORTHCH:  cpu time      0.1018: real time      0.1025
       DOS:  cpu time      0.0016: real time      0.0016
    CHARGE:  cpu time      0.1214: real time      0.1221
    MIXING:  cpu time      0.0020: real time      0.0020
    --------------------------------------------
      LOOP:  cpu time      1.9499: real time      1.9601

 eigenvalue-minimisations  :   673
 total energy-change (2. order) : 0.1152323E-03  (-0.5723344E-04)
 number of electron     518.9999649 magnetization 
 augmentation part      175.9654225 magnetization 

 eigenvalues of (default mixing * dielectric matrix)
  average eigenvalue GAMMA=   0.5618
  2.1607  0.7349  0.2122  0.1156  0.0921  0.0555

  free energy =  -0.577400715269E+03  energy without entropy=  -0.577375923911E+03


--------------------------------------------------------------------------------------------------------




--------------------------------------- Iteration      4(   8)  ---------------------------------------


    POTLOK:  cpu time      0.0685: real time      0.0692
    SETDIJ:  cpu time      0.0086: real time      0.0087
    EDDIAG:  cpu time      0.4235: real time      0.4262
  RMM-DIIS:  cpu time      1.3532: real time      1.3602
    ORTHCH:  cpu time      0.1160: real time      0.1166
       DOS:  cpu time      0.0017: real time      0.0017
    CHARGE:  cpu time      0.1255: real time      0.1261
    MIXING:  cpu time      0.0019: real time      0.0019
    --------------------------------------------
      LOOP:  cpu time      2.0990: real time      2.1106

 eigenvalue-minimisations  :   716
 total energy-change (2. order) : 0.2752468E-04  (-0.3048728E-04)
 number of electron     518.9999649 magnetization 
 augmentation part      175.9301029 magnetization 

 eigenvalues of (default mixing * dielectric matrix)
  average eigenvalue GAMMA=   0.5418
  2.0597  1.0789  0.2573  0.1577  0.0557  0.0987  0.0848

  free energy =  -0.577400687745E+03  energy without entropy=  -0.577375757435E+03


--------------------------------------------------------------------------------------------------------




--------------------------------------- Iteration      4(   9)  ---------------------------------------


    POTLOK:  cpu time      0.0572: real time      0.0618
    SETDIJ:  cpu time      0.0085: real time      0.0085
    EDDIAG:  cpu time      0.4815: real time      0.4838
  RMM-DIIS:  cpu time      1.0878: real time      1.0930
    ORTHCH:  cpu time      0.1050: real time      0.1056
       DOS:  cpu time      0.0014: real time      0.0014
    CHARGE:  cpu time      0.1131: real time      0.1136
    MIXING:  cpu time      0.0023: real time      0.0023
    --------------------------------------------
      LOOP:  cpu time      1.8568: real time      1.8700

 eigenvalue-minimisations  :   637
 total energy-change (2. order) : 0.1055577E-03  (-0.1241260E-04)
 number of electron     518.9999649 magnetization 
 augmentation part      175.9573250 magnetization 

 eigenvalues of (default mixing * dielectric matrix)
  average eigenvalue GAMMA=   0.5060
  2.0414  1.1605  0.2872  0.1982  0.1343  0.0959  0.0558  0.0751

  free energy =  -0.577400582187E+03  energy without entropy=  -0.577375699631E+03


--------------------------------------------------------------------------------------------------------




--------------------------------------- Iteration      4(  10)  ---------------------------------------


    POTLOK:  cpu time      0.0703: real time      0.0711
    SETDIJ:  cpu time      0.0086: real time      0.0087
    EDDIAG:  cpu time      0.4103: real time      0.4123
  RMM-DIIS:  cpu time      0.8534: real time      0.8570
    ORTHCH:  cpu time      0.1109: real time      0.1114
       DOS:  cpu time      0.0016: real time      0.0015
    CHARGE:  cpu time      0.1146: real time      0.1150
    MIXING:  cpu time      0.0024: real time      0.0024
    --------------------------------------------
      LOOP:  cpu time      1.5720: real time      1.5794

 eigenvalue-minimisations  :   516
 total energy-change (2. order) : 0.5975725E-04  (-0.4815885E-05)
 number of electron     518.9999649 magnetization 
 augmentation part      175.9449142 magnetization 

 eigenvalues of (default mixing * dielectric matrix)
  average eigenvalue GAMMA=   0.5051
  2.0247  1.2937  0.4390  0.2695  0.1683  0.1237  0.0953  0.0558  0.0757

  free energy =  -0.577400522430E+03  energy without entropy=  -0.577375620513E+03


--------------------------------------------------------------------------------------------------------




--------------------------------------- Iteration      4(  11)  ---------------------------------------


    POTLOK:  cpu time      0.0713: real time      0.0720
    SETDIJ:  cpu time      0.0083: real time      0.0083
    EDDIAG:  cpu time      0.4051: real time      0.4071
  RMM-DIIS:  cpu time      0.7822: real time      0.7862
    ORTHCH:  cpu time      0.0969: real time      0.0974
       DOS:  cpu time      0.0015: real time      0.0015
    --------------------------------------------
      LOOP:  cpu time      1.3652: real time      1.3725

 eigenvalue-minimisations  :   447
 total energy-change (2. order) : 0.2065870E-05  (-0.3378232E-05)
 number of electron     518.9999649 magnetization 
 augmentation part      175.9449142 magnetization 

  free energy =  -0.577400520364E+03  energy without entropy=  -0.577375542763E+03


--------------------------------------------------------------------------------------------------------




------------------------ aborting loop because EDIFF is reached ----------------------------------------





 total charge

# of ion       s       p       d       tot
------------------------------------------
    1        0.610   0.534   6.500   7.644
    2        0.610   0.531   6.505   7.646
    3        0.608   0.536   6.500   7.644
    4        0.605   0.532   6.509   7.646
    5        0.610   0.534   6.502   7.646
    6        0.609   0.534   6.494   7.637
    7        0.605   0.532   6.508   7.646
    8        0.608   0.536   6.500   7.644
    9        0.608   0.533   6.504   7.645
   10        0.605   0.536   6.499   7.641
   11        0.607   0.536   6.501   7.644
   12        0.607   0.536   6.501   7.643
   13        0.604   0.540   6.497   7.641
   14        0.605   0.536   6.503   7.644
   15        0.609   0.535   6.500   7.643
   16        0.609   0.535   6.501   7.645
   17        0.632   0.774   6.570   7.976
   18        0.632   0.774   6.570   7.976
   19        0.630   0.774   6.567   7.972
   20        0.629   0.770   6.560   7.959
   21        0.630   0.771   6.571   7.972
   22        0.630   0.771   6.571   7.971
   23        0.630   0.774   6.568   7.972
   24        0.631   0.772   6.572   7.975
   25        0.631   0.774   6.567   7.972
   26        0.631   0.774   6.567   7.973
   27        0.629   0.774   6.564   7.966
   28        0.632   0.774   6.564   7.970
   29        0.631   0.774   6.568   7.973
   30        0.631   0.774   6.567   7.973
   31        0.630   0.776   6.564   7.969
   32        0.632   0.774   6.564   7.970
   33        0.642   0.806   6.594   8.041
   34        0.647   0.817   6.589   8.053
   35        0.642   0.805   6.594   8.041
   36        0.639   0.794   6.582   8.015
   37        0.642   0.806   6.593   8.041
   38        0.641   0.799   6.596   8.036
   39        0.639   0.794   6.582   8.015
   40        0.642   0.805   6.594   8.041
   41        0.644   0.804   6.588   8.037
   42        0.643   0.796   6.593   8.032
   43        0.643   0.802   6.597   8.042
   44        0.643   0.802   6.597   8.042
   45        0.633   0.790   6.568   7.991
   46        0.643   0.796   6.594   8.032
   47        0.645   0.807   6.591   8.042
   48        0.645   0.807   6.591   8.043
   49        0.625   0.570   6.544   7.739
   50        0.625   0.570   6.544   7.738
   51        0.623   0.551   6.545   7.720
   52        0.623   0.561   6.575   7.759
   53        0.629   0.571   6.545   7.745
   54        0.629   0.571   6.545   7.744
   55        0.623   0.551   6.544   7.719
   56        0.626   0.552   6.539   7.717
   57        0.622   0.550   6.547   7.718
   58        0.598   0.657   6.550   7.806
   59        0.617   0.556   6.544   7.717
   60        0.622   0.552   6.546   7.720
   61        0.598   0.657   6.551   7.806
   62        0.622   0.550   6.548   7.719
   63        0.624   0.553   6.573   7.750
   64        0.623   0.552   6.548   7.723
   65        1.218   2.628   0.000   3.846
   66        0.645   0.088   0.000   0.733
   67        0.623   0.077   0.000   0.701
--------------------------------------------------
tot         42.499  45.676 419.327 507.502
 
    CHARGE:  cpu time      0.1171: real time      0.1178
    FORLOC:  cpu time      0.0151: real time      0.0152
    FORNL :  cpu time      0.5141: real time      0.5164
    STRESS:  cpu time      1.5324: real time      1.5398
    FORCOR:  cpu time      0.0616: real time      0.0619
    FORHAR:  cpu time      0.0252: real time      0.0253
    MIXING:  cpu time      0.0021: real time      0.0021
    OFIELD:  cpu time      0.0000: real time      0.0000

  FORCE on cell =-STRESS in cart. coord.  units (eV):
  Direction    XX          YY          ZZ          XY          YZ          ZX
  --------------------------------------------------------------------------------------
  Alpha Z  1067.80299  1067.80299  1067.80299
  Ewald   80372.17390 80401.78469************     0.08184     2.94026    -0.02680
  Hartree 87885.60687 87886.36129-86362.74766     0.05505     0.66989    -0.02601
  E(xc)   -2442.56884 -2442.04518 -2432.86793     0.00003     0.06727    -0.00203
  Local  ************************181896.61636    -0.11941    -2.01573     0.02889
  n-local   693.90416   694.28361   587.26029     0.00358    -0.75233     0.00911
  augment  2920.28897  2918.56260  2845.46577     0.00173    -0.27456     0.00133
  Kinetic  6147.39107  6126.40303  6053.73036     0.00894    -0.88345     0.01584
  Fock        0.00000     0.00000     0.00000     0.00000     0.00000     0.00000
  -------------------------------------------------------------------------------------
  Total     -62.99982   -65.91875   -53.38579     0.03175    -0.24866     0.00032
  in kB     -56.17301   -58.77565   -47.60079     0.02831    -0.22172     0.00028
  external pressure =      -54.18 kB  Pullay stress =        0.00 kB



--------------------------------------------------------------------------------------------------------



  FREE ENERGIE OF THE ION-ELECTRON SYSTEM (eV)
  ---------------------------------------------------
  free  energy   TOTEN  =      -577.40052036 eV

  energy  without entropy=     -577.37554276  energy(sigma->0) =     -577.38803156
 
 d Force =-0.6149746E-02[-0.134E-01, 0.113E-02]  d Energy =-0.6124788E-02-0.250E-04
 d Force =-0.3130610E-01[-0.338E-01,-0.288E-01]  d Ewald  =-0.3130690E-01 0.805E-06


--------------------------------------------------------------------------------------------------------


    POTLOK:  cpu time      0.0752: real time      0.0757


--------------------------------------------------------------------------------------------------------


 Finite differences progress:
  Degree of freedom:   2/  9
  Displacement:        1/  2
  Total:               3/ 18
  LATTYP: Found a hexagonal cell.
 ALAT       =    10.9034004211
 C/A-ratio  =     1.6006841223
  
  Lattice vectors:
  
 A1 = (  10.9034004211,   0.0000000000,   0.0000000000)
 A2 = (  -5.4517002106,   9.4426217523,   0.0000000000)
 A3 = (   0.0000000000,   0.0000000000,  17.4528999329)


Analysis of symmetry for initial positions (statically):
=====================================================================
 Subroutine PRICEL returns:
 Original cell was already a primitive cell.
 

 Routine SETGRP: Setting up the symmetry group for a 
 hexagonal supercell.


 Subroutine GETGRP returns: Found  1 space group operations
 (whereof  1 operations were pure point group operations)
 out of a pool of 24 trial point group operations.


The static configuration has the point symmetry C_1 .


Analysis of symmetry for dynamics (positions and initial velocities):
=====================================================================
 Subroutine PRICEL returns:
 Original cell was already a primitive cell.
 

 Routine SETGRP: Setting up the symmetry group for a 
 hexagonal supercell.


 Subroutine GETGRP returns: Found  1 space group operations
 (whereof  1 operations were pure point group operations)
 out of a pool of 24 trial point group operations.


The dynamic configuration has the point symmetry C_1 .


Analysis of constrained symmetry for selective dynamics:
=====================================================================
 Subroutine PRICEL returns:
 Original cell was already a primitive cell.
 

 Routine SETGRP: Setting up the symmetry group for a 
 hexagonal supercell.


 Subroutine GETGRP returns: Found  1 space group operations
 (whereof  1 operations were pure point group operations)
 out of a pool of 24 trial point group operations.


The constrained configuration has the point symmetry C_1 .


 Subroutine INISYM returns: Found  1 space group operations
 (whereof  1 operations are pure point group operations),
 and found     1 'primitive' translations

 
 KPOINTS: Kpoints                                 

Automatic generation of k-mesh.
 Grid dimensions read from file:
 generate k-points for:    1    1    1

 Generating k-lattice:

  Cartesian coordinates                     Fractional coordinates (reciprocal lattice)
     0.091714508  0.052951396  0.000000000     1.000000000  0.000000000  0.000000000
     0.000000000  0.105902791  0.000000000     0.000000000  1.000000000  0.000000000
     0.000000000  0.000000000  0.057297068     0.000000000  0.000000000  1.000000000

  Length of vectors
     0.105902791  0.105902791  0.057297068

  Shift w.r.t. Gamma in fractional coordinates (k-lattice)
     0.000000000  0.000000000  0.000000000

 
 Subroutine IBZKPT returns following result:
 ===========================================
 
 Found      1 irreducible k-points:
 
 Following reciprocal coordinates:
            Coordinates               Weight
  0.000000  0.000000  0.000000      1.000000
 
 Following cartesian coordinates:
            Coordinates               Weight
  0.000000  0.000000  0.000000      1.000000
 
    WAVPRE:  cpu time      0.0573: real time      0.0794
    FEWALD:  cpu time      0.0013: real time      0.0014
    ORTHCH:  cpu time      0.5895: real time      4.0296
     LOOP+:  cpu time     24.1621: real time     28.8603


--------------------------------------- Ionic step        5  -------------------------------------------




--------------------------------------- Iteration      5(   1)  ---------------------------------------


    POTLOK:  cpu time      0.0648: real time      0.0657
    SETDIJ:  cpu time      0.0083: real time      0.0083
     EDDAV:  cpu time      2.4452: real time      3.5743
       DOS:  cpu time      0.0004: real time      0.0004
    CHARGE:  cpu time      0.1252: real time      0.1258
    MIXING:  cpu time      0.0016: real time      0.0016
    --------------------------------------------
      LOOP:  cpu time      2.6456: real time      3.7761

 eigenvalue-minimisations  :   640
 total energy-change (2. order) :-0.2838341E-02  (-0.3797330E+00)
 number of electron     518.9999648 magnetization 
 augmentation part      175.9539209 magnetization 

  free energy =  -0.577403360770E+03  energy without entropy=  -0.577378482713E+03


--------------------------------------------------------------------------------------------------------




--------------------------------------- Iteration      5(   2)  ---------------------------------------


    POTLOK:  cpu time      0.0584: real time      0.0638
    SETDIJ:  cpu time      0.0090: real time      0.0091
    EDDIAG:  cpu time      0.4389: real time      0.4411
  RMM-DIIS:  cpu time      1.1413: real time      1.1473
    ORTHCH:  cpu time      0.1135: real time      0.1141
       DOS:  cpu time      0.0019: real time      0.0019
    CHARGE:  cpu time      0.1296: real time      0.1302
    MIXING:  cpu time      0.0018: real time      0.0018
    --------------------------------------------
      LOOP:  cpu time      1.8945: real time      1.9094

 eigenvalue-minimisations  :   647
 total energy-change (2. order) : 0.2628005E-03  (-0.1944058E-02)
 number of electron     518.9999647 magnetization 
 augmentation part      175.9223260 magnetization 

 eigenvalues of (default mixing * dielectric matrix)
  average eigenvalue GAMMA=   0.5128
  0.5128

  free energy =  -0.577403097970E+03  energy without entropy=  -0.577378110041E+03


--------------------------------------------------------------------------------------------------------




--------------------------------------- Iteration      5(   3)  ---------------------------------------


    POTLOK:  cpu time      0.0719: real time      0.0727
    SETDIJ:  cpu time      0.0091: real time      0.0092
    EDDIAG:  cpu time      0.4451: real time      0.4475
  RMM-DIIS:  cpu time      1.2349: real time      1.2400
    ORTHCH:  cpu time      0.1102: real time      0.1108
       DOS:  cpu time      0.0018: real time      0.0018
    CHARGE:  cpu time      0.1245: real time      0.1251
    MIXING:  cpu time      0.0019: real time      0.0019
    --------------------------------------------
      LOOP:  cpu time      1.9995: real time      2.0090

 eigenvalue-minimisations  :   674
 total energy-change (2. order) :-0.3745429E-02  (-0.8732428E-03)
 number of electron     518.9999648 magnetization 
 augmentation part      175.9788421 magnetization 

 eigenvalues of (default mixing * dielectric matrix)
  average eigenvalue GAMMA=   0.8982
  1.6875  0.1089

  free energy =  -0.577406843398E+03  energy without entropy=  -0.577384402233E+03


--------------------------------------------------------------------------------------------------------




--------------------------------------- Iteration      5(   4)  ---------------------------------------


    POTLOK:  cpu time      0.0704: real time      0.0712
    SETDIJ:  cpu time      0.0087: real time      0.0087
    EDDIAG:  cpu time      0.4226: real time      0.4241
  RMM-DIIS:  cpu time      1.1992: real time      1.2031
    ORTHCH:  cpu time      0.1008: real time      0.1011
       DOS:  cpu time      0.0015: real time      0.0015
    CHARGE:  cpu time      0.1226: real time      0.1230
    MIXING:  cpu time      0.0018: real time      0.0018
    --------------------------------------------
      LOOP:  cpu time      1.9276: real time      1.9346

 eigenvalue-minimisations  :   681
 total energy-change (2. order) : 0.6318621E-03  (-0.7905123E-03)
 number of electron     518.9999647 magnetization 
 augmentation part      176.0014585 magnetization 

 eigenvalues of (default mixing * dielectric matrix)
  average eigenvalue GAMMA=   0.7441
  1.9500  0.1877  0.0947

  free energy =  -0.577406211536E+03  energy without entropy=  -0.577382015131E+03


--------------------------------------------------------------------------------------------------------




--------------------------------------- Iteration      5(   5)  ---------------------------------------


    POTLOK:  cpu time      0.0587: real time      0.0593
    SETDIJ:  cpu time      0.0086: real time      0.0086
    EDDIAG:  cpu time      0.4160: real time      0.4174
  RMM-DIIS:  cpu time      1.1163: real time      1.1198
    ORTHCH:  cpu time      0.0973: real time      0.0977
       DOS:  cpu time      0.0015: real time      0.0015
    CHARGE:  cpu time      0.1179: real time      0.1184
    MIXING:  cpu time      0.0020: real time      0.0020
    --------------------------------------------
      LOOP:  cpu time      1.8183: real time      1.8247

 eigenvalue-minimisations  :   652
 total energy-change (2. order) : 0.2358915E-02  (-0.3017316E-03)
 number of electron     518.9999647 magnetization 
 augmentation part      175.9051961 magnetization 

 eigenvalues of (default mixing * dielectric matrix)
  average eigenvalue GAMMA=   0.6173
  2.0079  0.2640  0.1177  0.0795

  free energy =  -0.577403852621E+03  energy without entropy=  -0.577379463865E+03


--------------------------------------------------------------------------------------------------------




--------------------------------------- Iteration      5(   6)  ---------------------------------------


    POTLOK:  cpu time      0.0592: real time      0.0636
    SETDIJ:  cpu time      0.0086: real time      0.0086
    EDDIAG:  cpu time      0.4325: real time      0.4343
  RMM-DIIS:  cpu time      1.1407: real time      1.1452
    ORTHCH:  cpu time      0.1140: real time      0.1145
       DOS:  cpu time      0.0012: real time      0.0012
    CHARGE:  cpu time      0.1239: real time      0.1243
    MIXING:  cpu time      0.0020: real time      0.0020
    --------------------------------------------
      LOOP:  cpu time      1.8821: real time      1.8938

 eigenvalue-minimisations  :   677
 total energy-change (2. order) : 0.9176617E-03  (-0.1322587E-03)
 number of electron     518.9999648 magnetization 
 augmentation part      175.9938612 magnetization 

 eigenvalues of (default mixing * dielectric matrix)
  average eigenvalue GAMMA=   0.5489
  2.0210  0.3818  0.1798  0.0997  0.0624

  free energy =  -0.577402934960E+03  energy without entropy=  -0.577378649985E+03


--------------------------------------------------------------------------------------------------------




--------------------------------------- Iteration      5(   7)  ---------------------------------------


    POTLOK:  cpu time      0.0683: real time      0.0731
    SETDIJ:  cpu time      0.0087: real time      0.0087
    EDDIAG:  cpu time      0.4292: real time      0.4743
  RMM-DIIS:  cpu time      1.2782: real time      1.2834
    ORTHCH:  cpu time      0.1017: real time      0.1021
       DOS:  cpu time      0.0016: real time      0.0016
    CHARGE:  cpu time      0.1230: real time      0.1234
    MIXING:  cpu time      0.0020: real time      0.0020
    --------------------------------------------
      LOOP:  cpu time      2.0127: real time      2.0686

 eigenvalue-minimisations  :   727
 total energy-change (2. order) : 0.5697268E-03  (-0.6383313E-04)
 number of electron     518.9999648 magnetization 
 augmentation part      175.9527453 magnetization 

 eigenvalues of (default mixing * dielectric matrix)
  average eigenvalue GAMMA=   0.5191
  2.0017  0.6119  0.2275  0.1227  0.0945  0.0563

  free energy =  -0.577402365233E+03  energy without entropy=  -0.577377675762E+03


--------------------------------------------------------------------------------------------------------




--------------------------------------- Iteration      5(   8)  ---------------------------------------


    POTLOK:  cpu time      0.0730: real time      0.0737
    SETDIJ:  cpu time      0.0086: real time      0.0086
    EDDIAG:  cpu time      0.4253: real time      0.4272
  RMM-DIIS:  cpu time      1.1709: real time      1.1756
    ORTHCH:  cpu time      0.1199: real time      0.1204
       DOS:  cpu time      0.0017: real time      0.0017
    CHARGE:  cpu time      0.1231: real time      0.1236
    MIXING:  cpu time      0.0021: real time      0.0021
    --------------------------------------------
      LOOP:  cpu time      1.9245: real time      1.9329

 eigenvalue-minimisations  :   694
 total energy-change (2. order) : 0.1563097E-03  (-0.2435841E-04)
 number of electron     518.9999648 magnetization 
 augmentation part      175.9445047 magnetization 

 eigenvalues of (default mixing * dielectric matrix)
  average eigenvalue GAMMA=   0.5073
  1.9588  0.8972  0.2670  0.1732  0.1130  0.0886  0.0534

  free energy =  -0.577402208923E+03  energy without entropy=  -0.577377146203E+03


--------------------------------------------------------------------------------------------------------




--------------------------------------- Iteration      5(   9)  ---------------------------------------


    POTLOK:  cpu time      0.0596: real time      0.0602
    SETDIJ:  cpu time      0.0089: real time      0.0089
    EDDIAG:  cpu time      0.4690: real time      0.4721
  RMM-DIIS:  cpu time      1.1538: real time      1.1583
    ORTHCH:  cpu time      0.1188: real time      0.1193
       DOS:  cpu time      0.0016: real time      0.0016
    CHARGE:  cpu time      0.1194: real time      0.1199
    MIXING:  cpu time      0.0022: real time      0.0022
    --------------------------------------------
      LOOP:  cpu time      1.9332: real time      1.9424

 eigenvalue-minimisations  :   666
 total energy-change (2. order) : 0.4929082E-04  (-0.1377931E-04)
 number of electron     518.9999648 magnetization 
 augmentation part      175.9498043 magnetization 

 eigenvalues of (default mixing * dielectric matrix)
  average eigenvalue GAMMA=   0.4893
  1.9255  1.0618  0.3338  0.2126  0.1384  0.1022  0.0865  0.0533

  free energy =  -0.577402159632E+03  energy without entropy=  -0.577377292135E+03


--------------------------------------------------------------------------------------------------------




--------------------------------------- Iteration      5(  10)  ---------------------------------------


    POTLOK:  cpu time      0.0596: real time      0.0603
    SETDIJ:  cpu time      0.0086: real time      0.0086
    EDDIAG:  cpu time      0.7128: real time      0.7184
  RMM-DIIS:  cpu time      1.0098: real time      1.0137
    ORTHCH:  cpu time      0.1020: real time      0.1024
       DOS:  cpu time      0.0016: real time      0.0016
    CHARGE:  cpu time      0.1201: real time      0.1206
    MIXING:  cpu time      0.0023: real time      0.0023
    --------------------------------------------
      LOOP:  cpu time      2.0169: real time      2.0281

 eigenvalue-minimisations  :   559
 total energy-change (2. order) : 0.3198232E-04  (-0.6472312E-05)
 number of electron     518.9999647 magnetization 
 augmentation part      175.9446668 magnetization 

 eigenvalues of (default mixing * dielectric matrix)
  average eigenvalue GAMMA=   0.5015
  1.9291  1.2357  0.5509  0.2603  0.1829  0.0533  0.1189  0.0854  0.0967

  free energy =  -0.577402127650E+03  energy without entropy=  -0.577377225664E+03


--------------------------------------------------------------------------------------------------------




--------------------------------------- Iteration      5(  11)  ---------------------------------------


    POTLOK:  cpu time      0.0599: real time      0.0606
    SETDIJ:  cpu time      0.0086: real time      0.0086
    EDDIAG:  cpu time      0.4187: real time      0.4219
  RMM-DIIS:  cpu time      0.9627: real time      0.9669
    ORTHCH:  cpu time      0.1242: real time      0.1247
       DOS:  cpu time      0.0016: real time      0.0016
    --------------------------------------------
      LOOP:  cpu time      1.5756: real time      1.5843

 eigenvalue-minimisations  :   528
 total energy-change (2. order) : 0.4181216E-05  (-0.5242967E-05)
 number of electron     518.9999647 magnetization 
 augmentation part      175.9446668 magnetization 

  free energy =  -0.577402123469E+03  energy without entropy=  -0.577377195520E+03


--------------------------------------------------------------------------------------------------------




------------------------ aborting loop because EDIFF is reached ----------------------------------------





 total charge

# of ion       s       p       d       tot
------------------------------------------
    1        0.610   0.534   6.500   7.643
    2        0.610   0.531   6.509   7.650
    3        0.608   0.536   6.501   7.645
    4        0.605   0.532   6.509   7.647
    5        0.610   0.534   6.500   7.644
    6        0.609   0.534   6.496   7.639
    7        0.605   0.532   6.511   7.649
    8        0.608   0.536   6.500   7.644
    9        0.608   0.533   6.504   7.645
   10        0.605   0.536   6.501   7.642
   11        0.607   0.536   6.502   7.645
   12        0.607   0.536   6.501   7.643
   13        0.604   0.540   6.494   7.638
   14        0.605   0.536   6.503   7.644
   15        0.609   0.535   6.499   7.643
   16        0.609   0.535   6.498   7.642
   17        0.632   0.774   6.570   7.975
   18        0.632   0.774   6.569   7.975
   19        0.630   0.774   6.568   7.972
   20        0.629   0.770   6.561   7.960
   21        0.630   0.771   6.571   7.971
   22        0.630   0.771   6.571   7.971
   23        0.630   0.774   6.568   7.972
   24        0.631   0.772   6.571   7.974
   25        0.631   0.774   6.567   7.972
   26        0.631   0.774   6.567   7.972
   27        0.629   0.774   6.564   7.966
   28        0.632   0.774   6.563   7.969
   29        0.631   0.774   6.567   7.973
   30        0.631   0.774   6.567   7.972
   31        0.630   0.776   6.563   7.969
   32        0.632   0.774   6.564   7.970
   33        0.642   0.806   6.594   8.041
   34        0.647   0.817   6.590   8.053
   35        0.642   0.805   6.593   8.040
   36        0.639   0.794   6.581   8.014
   37        0.642   0.806   6.594   8.041
   38        0.642   0.799   6.596   8.037
   39        0.639   0.794   6.581   8.014
   40        0.642   0.805   6.593   8.040
   41        0.644   0.804   6.588   8.036
   42        0.643   0.796   6.595   8.033
   43        0.643   0.802   6.596   8.041
   44        0.643   0.802   6.596   8.041
   45        0.633   0.790   6.568   7.991
   46        0.643   0.796   6.595   8.033
   47        0.645   0.807   6.591   8.042
   48        0.645   0.807   6.591   8.043
   49        0.625   0.570   6.543   7.738
   50        0.625   0.570   6.544   7.739
   51        0.623   0.551   6.546   7.720
   52        0.623   0.561   6.576   7.761
   53        0.629   0.571   6.547   7.747
   54        0.629   0.571   6.548   7.748
   55        0.623   0.551   6.545   7.720
   56        0.626   0.552   6.537   7.715
   57        0.622   0.549   6.547   7.718
   58        0.598   0.657   6.552   7.807
   59        0.617   0.556   6.545   7.718
   60        0.622   0.552   6.544   7.719
   61        0.598   0.657   6.551   7.806
   62        0.622   0.549   6.547   7.718
   63        0.625   0.553   6.573   7.751
   64        0.622   0.552   6.546   7.721
   65        1.218   2.628   0.000   3.846
   66        0.621   0.077   0.000   0.699
   67        0.647   0.088   0.000   0.735
--------------------------------------------------
tot         42.498  45.674 419.331 507.502
 
    CHARGE:  cpu time      0.1184: real time      0.1189
    FORLOC:  cpu time      0.0151: real time      0.0151
    FORNL :  cpu time      0.4880: real time      0.4901
    STRESS:  cpu time      1.5303: real time      1.5367
    FORCOR:  cpu time      0.0702: real time      0.0705
    FORHAR:  cpu time      0.0251: real time      0.0252
    MIXING:  cpu time      0.0019: real time      0.0019
    OFIELD:  cpu time      0.0000: real time      0.0000

  FORCE on cell =-STRESS in cart. coord.  units (eV):
  Direction    XX          YY          ZZ          XY          YZ          ZX
  --------------------------------------------------------------------------------------
  Alpha Z  1067.80299  1067.80299  1067.80299
  Ewald   80372.13847 80401.79664************     0.08411    -0.57339    -0.02841
  Hartree 87885.39631 87886.22170-86362.52193     0.04429     0.42491    -0.00814
  E(xc)   -2442.57874 -2442.04293 -2432.85024    -0.00032     0.06467    -0.00131
  Local  ************************181896.66022    -0.11552     0.60421     0.01874
  n-local   693.86109   694.24866   587.13786     0.00617    -0.69540     0.00457
  augment  2920.36162  2918.59077  2845.46548     0.00110    -0.24038     0.00129
  Kinetic  6147.48037  6126.50508  6053.66990     0.00684    -0.73250     0.01387
  Fock        0.00000     0.00000     0.00000     0.00000     0.00000     0.00000
  -------------------------------------------------------------------------------------
  Total     -63.03271   -65.82887   -53.28231     0.02667    -1.14787     0.00061
  in kB     -56.20234   -58.69551   -47.50852     0.02378    -1.02349     0.00054
  external pressure =      -54.14 kB  Pullay stress =        0.00 kB



--------------------------------------------------------------------------------------------------------



  FREE ENERGIE OF THE ION-ELECTRON SYSTEM (eV)
  ---------------------------------------------------
  free  energy   TOTEN  =      -577.40212347 eV

  energy  without entropy=     -577.37719552  energy(sigma->0) =     -577.38965949
 
 d Force = 0.1607512E-02[-0.236E-01, 0.268E-01]  d Energy = 0.1603105E-02 0.441E-05
 d Force = 0.2410186E-01[-0.215E-01, 0.697E-01]  d Ewald  = 0.2409149E-01 0.104E-04


--------------------------------------------------------------------------------------------------------


    POTLOK:  cpu time      0.0723: real time      0.0726


--------------------------------------------------------------------------------------------------------


 Finite differences progress:
  Degree of freedom:   2/  9
  Displacement:        2/  2
  Total:               4/ 18
  LATTYP: Found a hexagonal cell.
 ALAT       =    10.9034004211
 C/A-ratio  =     1.6006841223
  
  Lattice vectors:
  
 A1 = (  10.9034004211,   0.0000000000,   0.0000000000)
 A2 = (  -5.4517002106,   9.4426217523,   0.0000000000)
 A3 = (   0.0000000000,   0.0000000000,  17.4528999329)


Analysis of symmetry for initial positions (statically):
=====================================================================
 Subroutine PRICEL returns:
 Original cell was already a primitive cell.
 

 Routine SETGRP: Setting up the symmetry group for a 
 hexagonal supercell.


 Subroutine GETGRP returns: Found  1 space group operations
 (whereof  1 operations were pure point group operations)
 out of a pool of 24 trial point group operations.


The static configuration has the point symmetry C_1 .


Analysis of symmetry for dynamics (positions and initial velocities):
=====================================================================
 Subroutine PRICEL returns:
 Original cell was already a primitive cell.
 

 Routine SETGRP: Setting up the symmetry group for a 
 hexagonal supercell.


 Subroutine GETGRP returns: Found  1 space group operations
 (whereof  1 operations were pure point group operations)
 out of a pool of 24 trial point group operations.


The dynamic configuration has the point symmetry C_1 .


Analysis of constrained symmetry for selective dynamics:
=====================================================================
 Subroutine PRICEL returns:
 Original cell was already a primitive cell.
 

 Routine SETGRP: Setting up the symmetry group for a 
 hexagonal supercell.


 Subroutine GETGRP returns: Found  1 space group operations
 (whereof  1 operations were pure point group operations)
 out of a pool of 24 trial point group operations.


The constrained configuration has the point symmetry C_1 .


 Subroutine INISYM returns: Found  1 space group operations
 (whereof  1 operations are pure point group operations),
 and found     1 'primitive' translations

 
 KPOINTS: Kpoints                                 

Automatic generation of k-mesh.
 Grid dimensions read from file:
 generate k-points for:    1    1    1

 Generating k-lattice:

  Cartesian coordinates                     Fractional coordinates (reciprocal lattice)
     0.091714508  0.052951396  0.000000000     1.000000000  0.000000000  0.000000000
     0.000000000  0.105902791  0.000000000     0.000000000  1.000000000  0.000000000
     0.000000000  0.000000000  0.057297068     0.000000000  0.000000000  1.000000000

  Length of vectors
     0.105902791  0.105902791  0.057297068

  Shift w.r.t. Gamma in fractional coordinates (k-lattice)
     0.000000000  0.000000000  0.000000000

 
 Subroutine IBZKPT returns following result:
 ===========================================
 
 Found      1 irreducible k-points:
 
 Following reciprocal coordinates:
            Coordinates               Weight
  0.000000  0.000000  0.000000      1.000000
 
 Following cartesian coordinates:
            Coordinates               Weight
  0.000000  0.000000  0.000000      1.000000
 
    WAVPRE:  cpu time      0.0554: real time      0.0772
    FEWALD:  cpu time      0.0017: real time      0.0017
    ORTHCH:  cpu time      0.3977: real time      3.3806
     LOOP+:  cpu time     24.4459: real time     28.7357


--------------------------------------- Ionic step        6  -------------------------------------------




--------------------------------------- Iteration      6(   1)  ---------------------------------------


    POTLOK:  cpu time      0.0661: real time      0.0668
    SETDIJ:  cpu time      0.0089: real time      0.0089
     EDDAV:  cpu time      2.5829: real time      3.7041
       DOS:  cpu time      0.0007: real time      0.0007
    CHARGE:  cpu time      0.1200: real time      0.1204
    MIXING:  cpu time      0.0016: real time      0.0016
    --------------------------------------------
      LOOP:  cpu time      2.7802: real time      3.9026

 eigenvalue-minimisations  :   640
 total energy-change (2. order) :-0.1342846E-02  (-0.1899671E+00)
 number of electron     518.9999643 magnetization 
 augmentation part      175.9342379 magnetization 

  free energy =  -0.577403470496E+03  energy without entropy=  -0.577378447054E+03


--------------------------------------------------------------------------------------------------------




--------------------------------------- Iteration      6(   2)  ---------------------------------------


    POTLOK:  cpu time      0.0687: real time      0.0694
    SETDIJ:  cpu time      0.0085: real time      0.0085
    EDDIAG:  cpu time      0.5251: real time      0.5276
  RMM-DIIS:  cpu time      1.0606: real time      1.0654
    ORTHCH:  cpu time      0.1171: real time      0.1176
       DOS:  cpu time      0.0016: real time      0.0016
    CHARGE:  cpu time      0.1174: real time      0.1181
    MIXING:  cpu time      0.0018: real time      0.0017
    --------------------------------------------
      LOOP:  cpu time      1.9007: real time      1.9099

 eigenvalue-minimisations  :   653
 total energy-change (2. order) :-0.8145880E-03  (-0.1300573E-02)
 number of electron     518.9999643 magnetization 
 augmentation part      176.0064318 magnetization 

 eigenvalues of (default mixing * dielectric matrix)
  average eigenvalue GAMMA=   0.2969
  0.2969

  free energy =  -0.577404285084E+03  energy without entropy=  -0.577380083908E+03


--------------------------------------------------------------------------------------------------------




--------------------------------------- Iteration      6(   3)  ---------------------------------------


    POTLOK:  cpu time      0.0586: real time      0.0594
    SETDIJ:  cpu time      0.0089: real time      0.0089
    EDDIAG:  cpu time      0.6003: real time      0.6027
  RMM-DIIS:  cpu time      1.1290: real time      1.1333
    ORTHCH:  cpu time      0.1196: real time      0.1252
       DOS:  cpu time      0.0018: real time      0.0018
    CHARGE:  cpu time      0.1212: real time      0.1217
    MIXING:  cpu time      0.0019: real time      0.0019
    --------------------------------------------
      LOOP:  cpu time      2.0413: real time      2.0548

 eigenvalue-minimisations  :   660
 total energy-change (2. order) :-0.8484122E-03  (-0.4335253E-03)
 number of electron     518.9999643 magnetization 
 augmentation part      175.8736219 magnetization 

 eigenvalues of (default mixing * dielectric matrix)
  average eigenvalue GAMMA=   0.5370
  0.9812  0.0929

  free energy =  -0.577405133496E+03  energy without entropy=  -0.577381023600E+03


--------------------------------------------------------------------------------------------------------




--------------------------------------- Iteration      6(   4)  ---------------------------------------


    POTLOK:  cpu time      0.0612: real time      0.0619
    SETDIJ:  cpu time      0.0091: real time      0.0092
    EDDIAG:  cpu time      0.4369: real time      0.4388
  RMM-DIIS:  cpu time      1.1613: real time      1.1658
    ORTHCH:  cpu time      0.1081: real time      0.1086
       DOS:  cpu time      0.0017: real time      0.0017
    CHARGE:  cpu time      0.1269: real time      0.1275
    MIXING:  cpu time      0.0018: real time      0.0018
    --------------------------------------------
      LOOP:  cpu time      1.9073: real time      1.9154

 eigenvalue-minimisations  :   700
 total energy-change (2. order) :-0.2504783E-02  (-0.4404835E-03)
 number of electron     518.9999643 magnetization 
 augmentation part      176.0204659 magnetization 

 eigenvalues of (default mixing * dielectric matrix)
  average eigenvalue GAMMA=   0.5661
  1.4909  0.1417  0.0658

  free energy =  -0.577407638279E+03  energy without entropy=  -0.577383864329E+03


--------------------------------------------------------------------------------------------------------




--------------------------------------- Iteration      6(   5)  ---------------------------------------


    POTLOK:  cpu time      0.0582: real time      0.0637
    SETDIJ:  cpu time      0.0086: real time      0.0086
    EDDIAG:  cpu time      0.4400: real time      0.4422
  RMM-DIIS:  cpu time      1.2468: real time      1.2516
    ORTHCH:  cpu time      0.1042: real time      0.1046
       DOS:  cpu time      0.0017: real time      0.0016
    CHARGE:  cpu time      0.1249: real time      0.1253
    MIXING:  cpu time      0.0020: real time      0.0020
    --------------------------------------------
      LOOP:  cpu time      1.9862: real time      1.9996

 eigenvalue-minimisations  :   691
 total energy-change (2. order) : 0.2532310E-02  (-0.3162182E-03)
 number of electron     518.9999643 magnetization 
 augmentation part      175.9393333 magnetization 

 eigenvalues of (default mixing * dielectric matrix)
  average eigenvalue GAMMA=   0.5282
  1.7374  0.2118  0.1063  0.0574

  free energy =  -0.577405105969E+03  energy without entropy=  -0.577380354398E+03


--------------------------------------------------------------------------------------------------------




--------------------------------------- Iteration      6(   6)  ---------------------------------------


    POTLOK:  cpu time      0.0642: real time      0.0693
    SETDIJ:  cpu time      0.0088: real time      0.0088
    EDDIAG:  cpu time      0.4268: real time      0.4286
  RMM-DIIS:  cpu time      1.2093: real time      1.2144
    ORTHCH:  cpu time      0.0994: real time      0.0999
       DOS:  cpu time      0.0015: real time      0.0015
    CHARGE:  cpu time      0.1214: real time      0.1219
    MIXING:  cpu time      0.0020: real time      0.0020
    --------------------------------------------
      LOOP:  cpu time      1.9334: real time      1.9463

 eigenvalue-minimisations  :   683
 total energy-change (2. order) : 0.1895082E-02  (-0.1917332E-03)
 number of electron     518.9999643 magnetization 
 augmentation part      175.9306874 magnetization 

 eigenvalues of (default mixing * dielectric matrix)
  average eigenvalue GAMMA=   0.5138
  1.8791  0.3875  0.1549  0.0931  0.0544

  free energy =  -0.577403210887E+03  energy without entropy=  -0.577377952566E+03


--------------------------------------------------------------------------------------------------------




--------------------------------------- Iteration      6(   7)  ---------------------------------------


    POTLOK:  cpu time      0.0695: real time      0.0702
    SETDIJ:  cpu time      0.0083: real time      0.0083
    EDDIAG:  cpu time      0.4190: real time      0.4208
  RMM-DIIS:  cpu time      1.2030: real time      1.2073
    ORTHCH:  cpu time      0.0968: real time      0.0972
       DOS:  cpu time      0.0015: real time      0.0015
    CHARGE:  cpu time      0.1144: real time      0.1148
    MIXING:  cpu time      0.0022: real time      0.0022
    --------------------------------------------
      LOOP:  cpu time      1.9148: real time      1.9223

 eigenvalue-minimisations  :   685
 total energy-change (2. order) : 0.3734029E-03  (-0.1272846E-03)
 number of electron     518.9999643 magnetization 
 augmentation part      175.9576539 magnetization 

 eigenvalues of (default mixing * dielectric matrix)
  average eigenvalue GAMMA=   0.5815
  1.9460  1.0407  0.2249  0.1330  0.0899  0.0542

  free energy =  -0.577402837484E+03  energy without entropy=  -0.577378201029E+03


--------------------------------------------------------------------------------------------------------




--------------------------------------- Iteration      6(   8)  ---------------------------------------


    POTLOK:  cpu time      0.0521: real time      0.0567
    SETDIJ:  cpu time      0.0087: real time      0.0088
    EDDIAG:  cpu time      0.3952: real time      0.3967
  RMM-DIIS:  cpu time      1.0892: real time      1.0929
    ORTHCH:  cpu time      0.1341: real time      0.1346
       DOS:  cpu time      0.0018: real time      0.0018
    CHARGE:  cpu time      0.1172: real time      0.1176
    MIXING:  cpu time      0.0023: real time      0.0023
    --------------------------------------------
      LOOP:  cpu time      1.8006: real time      1.8113

 eigenvalue-minimisations  :   685
 total energy-change (2. order) :-0.1065362E-03  (-0.8103216E-04)
 number of electron     518.9999643 magnetization 
 augmentation part      175.9478087 magnetization 

 eigenvalues of (default mixing * dielectric matrix)
  average eigenvalue GAMMA=   0.5572
  2.0043  1.2204  0.2459  0.0542  0.1645  0.0892  0.1219

  free energy =  -0.577402944020E+03  energy without entropy=  -0.577377799734E+03


--------------------------------------------------------------------------------------------------------




--------------------------------------- Iteration      6(   9)  ---------------------------------------


    POTLOK:  cpu time      0.0603: real time      0.0609
    SETDIJ:  cpu time      0.0101: real time      0.0101
    EDDIAG:  cpu time      0.4816: real time      0.4836
  RMM-DIIS:  cpu time      1.1024: real time      1.1069
    ORTHCH:  cpu time      0.1072: real time      0.1076
       DOS:  cpu time      0.0017: real time      0.0016
    CHARGE:  cpu time      0.1271: real time      0.1277
    MIXING:  cpu time      0.0023: real time      0.0023
    --------------------------------------------
      LOOP:  cpu time      1.8926: real time      1.9007

 eigenvalue-minimisations  :   642
 total energy-change (2. order) : 0.2100136E-03  (-0.2687641E-04)
 number of electron     518.9999643 magnetization 
 augmentation part      175.9638115 magnetization 

 eigenvalues of (default mixing * dielectric matrix)
  average eigenvalue GAMMA=   0.5267
  2.0544  1.2644  0.2764  0.2238  0.0542  0.1378  0.0892  0.1137

  free energy =  -0.577402734007E+03  energy without entropy=  -0.577378064905E+03


--------------------------------------------------------------------------------------------------------




--------------------------------------- Iteration      6(  10)  ---------------------------------------


    POTLOK:  cpu time      0.0609: real time      0.0615
    SETDIJ:  cpu time      0.0090: real time      0.0090
    EDDIAG:  cpu time      0.4362: real time      0.4383
  RMM-DIIS:  cpu time      1.1637: real time      1.1694
    ORTHCH:  cpu time      0.1105: real time      0.1111
       DOS:  cpu time      0.0018: real time      0.0018
    CHARGE:  cpu time      0.1258: real time      0.1264
    MIXING:  cpu time      0.0023: real time      0.0023
    --------------------------------------------
      LOOP:  cpu time      1.9104: real time      1.9199

 eigenvalue-minimisations  :   646
 total energy-change (2. order) : 0.7302859E-04  (-0.1233359E-04)
 number of electron     518.9999643 magnetization 
 augmentation part      175.9517574 magnetization 

 eigenvalues of (default mixing * dielectric matrix)
  average eigenvalue GAMMA=   0.5138
  2.1230  1.2543  0.4407  0.2584  0.1796  0.0542  0.1313  0.0890  0.0939

  free energy =  -0.577402660978E+03  energy without entropy=  -0.577377689787E+03


--------------------------------------------------------------------------------------------------------




--------------------------------------- Iteration      6(  11)  ---------------------------------------


    POTLOK:  cpu time      0.0610: real time      0.0652
    SETDIJ:  cpu time      0.0091: real time      0.0091
    EDDIAG:  cpu time      0.4467: real time      0.4489
  RMM-DIIS:  cpu time      1.0071: real time      1.0125
    ORTHCH:  cpu time      0.1260: real time      0.1267
       DOS:  cpu time      0.0018: real time      0.0018
    CHARGE:  cpu time      0.1241: real time      0.1247
    MIXING:  cpu time      0.0025: real time      0.0025
    --------------------------------------------
      LOOP:  cpu time      1.7782: real time      1.7914

 eigenvalue-minimisations  :   524
 total energy-change (2. order) : 0.1696339E-04  (-0.5093884E-05)
 number of electron     518.9999643 magnetization 
 augmentation part      175.9472326 magnetization 

 eigenvalues of (default mixing * dielectric matrix)
  average eigenvalue GAMMA=   0.5034
  2.1971  1.1831  0.6955  0.2629  0.2010  0.0542  0.1435  0.1214  0.0899  0.0855

  free energy =  -0.577402644015E+03  energy without entropy=  -0.577377716416E+03


--------------------------------------------------------------------------------------------------------




--------------------------------------- Iteration      6(  12)  ---------------------------------------


    POTLOK:  cpu time      0.0774: real time      0.0781
    SETDIJ:  cpu time      0.0089: real time      0.0090
    EDDIAG:  cpu time      0.4293: real time      0.4313
  RMM-DIIS:  cpu time      0.7917: real time      0.7952
    ORTHCH:  cpu time      0.0987: real time      0.0991
       DOS:  cpu time      0.0015: real time      0.0015
    CHARGE:  cpu time      0.1195: real time      0.1200
    MIXING:  cpu time      0.0024: real time      0.0024
    --------------------------------------------
      LOOP:  cpu time      1.5295: real time      1.5367

 eigenvalue-minimisations  :   397
 total energy-change (2. order) : 0.1140624E-04  (-0.2613135E-05)
 number of electron     518.9999643 magnetization 
 augmentation part      175.9529176 magnetization 

 eigenvalues of (default mixing * dielectric matrix)
  average eigenvalue GAMMA=   0.5047
  2.2797  1.0361  1.0361  0.2848  0.2721  0.1834  0.1341  0.0542  0.1057  0.0891
  0.0761

  free energy =  -0.577402632609E+03  energy without entropy=  -0.577377697839E+03


--------------------------------------------------------------------------------------------------------




--------------------------------------- Iteration      6(  13)  ---------------------------------------


    POTLOK:  cpu time      0.0589: real time      0.0595
    SETDIJ:  cpu time      0.0089: real time      0.0089
    EDDIAG:  cpu time      0.4178: real time      0.4196
  RMM-DIIS:  cpu time      0.7210: real time      0.7230
    ORTHCH:  cpu time      0.1117: real time      0.1121
       DOS:  cpu time      0.0015: real time      0.0015
    --------------------------------------------
      LOOP:  cpu time      1.3198: real time      1.3246

 eigenvalue-minimisations  :   368
 total energy-change (2. order) : 0.8474562E-05  (-0.1512895E-05)
 number of electron     518.9999643 magnetization 
 augmentation part      175.9529176 magnetization 

  free energy =  -0.577402624134E+03  energy without entropy=  -0.577377659105E+03


--------------------------------------------------------------------------------------------------------




------------------------ aborting loop because EDIFF is reached ----------------------------------------





 total charge

# of ion       s       p       d       tot
------------------------------------------
    1        0.610   0.534   6.499   7.642
    2        0.610   0.531   6.507   7.648
    3        0.608   0.536   6.500   7.644
    4        0.605   0.532   6.507   7.645
    5        0.610   0.534   6.499   7.642
    6        0.610   0.534   6.498   7.641
    7        0.605   0.532   6.509   7.646
    8        0.608   0.536   6.498   7.642
    9        0.608   0.533   6.505   7.646
   10        0.605   0.536   6.503   7.645
   11        0.607   0.536   6.502   7.645
   12        0.607   0.536   6.502   7.644
   13        0.604   0.540   6.495   7.639
   14        0.605   0.536   6.504   7.645
   15        0.609   0.535   6.500   7.644
   16        0.609   0.535   6.499   7.643
   17        0.632   0.774   6.569   7.975
   18        0.632   0.774   6.569   7.975
   19        0.630   0.774   6.567   7.972
   20        0.629   0.770   6.560   7.959
   21        0.630   0.771   6.571   7.972
   22        0.630   0.771   6.571   7.972
   23        0.630   0.774   6.567   7.971
   24        0.631   0.772   6.572   7.975
   25        0.631   0.774   6.568   7.973
   26        0.631   0.774   6.567   7.973
   27        0.629   0.774   6.564   7.966
   28        0.632   0.774   6.564   7.970
   29        0.631   0.774   6.567   7.973
   30        0.631   0.774   6.567   7.973
   31        0.630   0.776   6.563   7.969
   32        0.632   0.774   6.564   7.970
   33        0.642   0.806   6.593   8.041
   34        0.647   0.817   6.589   8.053
   35        0.642   0.805   6.594   8.041
   36        0.639   0.794   6.581   8.015
   37        0.642   0.806   6.593   8.041
   38        0.642   0.799   6.596   8.036
   39        0.639   0.794   6.581   8.014
   40        0.642   0.805   6.593   8.040
   41        0.644   0.805   6.589   8.037
   42        0.643   0.796   6.594   8.032
   43        0.643   0.802   6.597   8.042
   44        0.643   0.802   6.597   8.042
   45        0.633   0.790   6.567   7.990
   46        0.643   0.796   6.594   8.032
   47        0.645   0.807   6.591   8.042
   48        0.645   0.807   6.591   8.042
   49        0.625   0.570   6.542   7.737
   50        0.625   0.570   6.544   7.738
   51        0.623   0.551   6.546   7.720
   52        0.623   0.561   6.574   7.759
   53        0.629   0.571   6.544   7.744
   54        0.629   0.571   6.546   7.745
   55        0.623   0.551   6.545   7.720
   56        0.626   0.552   6.538   7.716
   57        0.622   0.550   6.547   7.719
   58        0.597   0.654   6.547   7.797
   59        0.617   0.556   6.547   7.720
   60        0.622   0.552   6.545   7.720
   61        0.596   0.654   6.546   7.796
   62        0.622   0.550   6.547   7.719
   63        0.625   0.553   6.572   7.750
   64        0.622   0.552   6.545   7.720
   65        1.219   2.637   0.000   3.855
   66        0.642   0.086   0.000   0.728
   67        0.644   0.086   0.000   0.730
--------------------------------------------------
tot         42.514  45.685 419.312 507.512
 
    CHARGE:  cpu time      0.1212: real time      0.1216
    FORLOC:  cpu time      0.0151: real time      0.0152
    FORNL :  cpu time      0.5164: real time      0.5180
    STRESS:  cpu time      1.4912: real time      1.4962
    FORCOR:  cpu time      0.0591: real time      0.0593
    FORHAR:  cpu time      0.0248: real time      0.0249
    MIXING:  cpu time      0.0020: real time      0.0020
    OFIELD:  cpu time      0.0000: real time      0.0000

  FORCE on cell =-STRESS in cart. coord.  units (eV):
  Direction    XX          YY          ZZ          XY          YZ          ZX
  --------------------------------------------------------------------------------------
  Alpha Z  1067.80299  1067.80299  1067.80299
  Ewald   80356.01461 80389.95694************     0.08379     1.16960    -0.02889
  Hartree 87868.28598 87869.71593-86345.23884     0.03753     0.56242    -0.00296
  E(xc)   -2442.57968 -2442.06779 -2432.88946    -0.00061     0.05909     0.00055
  Local  ************************181864.36723    -0.12137    -0.78948     0.03527
  n-local   693.66356   694.02878   586.91582     0.00591    -0.67467    -0.00181
  augment  2920.22275  2918.54284  2845.44919    -0.00033    -0.23634    -0.00364
  Kinetic  6147.49063  6126.15376  6054.26939    -0.01883    -0.73931     0.00358
  Fock        0.00000     0.00000     0.00000     0.00000     0.00000     0.00000
  -------------------------------------------------------------------------------------
  Total     -63.29266   -65.67557   -53.61528    -0.01390    -0.64870     0.00210
  in kB     -56.43412   -58.55881   -47.80541    -0.01239    -0.57841     0.00187
  external pressure =      -54.27 kB  Pullay stress =        0.00 kB



--------------------------------------------------------------------------------------------------------



  FREE ENERGIE OF THE ION-ELECTRON SYSTEM (eV)
  ---------------------------------------------------
  free  energy   TOTEN  =      -577.40262413 eV

  energy  without entropy=     -577.37765911  energy(sigma->0) =     -577.39014162
 
 d Force = 0.3076868E-03[-0.105E-01, 0.112E-01]  d Energy = 0.5006653E-03-0.193E-03
 d Force = 0.1360816E+02[ 0.136E+02, 0.136E+02]  d Ewald  = 0.1360858E+02-0.428E-03


--------------------------------------------------------------------------------------------------------


    POTLOK:  cpu time      0.0625: real time      0.0627


--------------------------------------------------------------------------------------------------------


 Finite differences progress:
  Degree of freedom:   3/  9
  Displacement:        1/  2
  Total:               5/ 18
  LATTYP: Found a hexagonal cell.
 ALAT       =    10.9034004211
 C/A-ratio  =     1.6006841223
  
  Lattice vectors:
  
 A1 = (  10.9034004211,   0.0000000000,   0.0000000000)
 A2 = (  -5.4517002106,   9.4426217523,   0.0000000000)
 A3 = (   0.0000000000,   0.0000000000,  17.4528999329)


Analysis of symmetry for initial positions (statically):
=====================================================================
 Subroutine PRICEL returns:
 Original cell was already a primitive cell.
 

 Routine SETGRP: Setting up the symmetry group for a 
 hexagonal supercell.


 Subroutine GETGRP returns: Found  1 space group operations
 (whereof  1 operations were pure point group operations)
 out of a pool of 24 trial point group operations.


The static configuration has the point symmetry C_1 .


Analysis of symmetry for dynamics (positions and initial velocities):
=====================================================================
 Subroutine PRICEL returns:
 Original cell was already a primitive cell.
 

 Routine SETGRP: Setting up the symmetry group for a 
 hexagonal supercell.


 Subroutine GETGRP returns: Found  1 space group operations
 (whereof  1 operations were pure point group operations)
 out of a pool of 24 trial point group operations.


The dynamic configuration has the point symmetry C_1 .


Analysis of constrained symmetry for selective dynamics:
=====================================================================
 Subroutine PRICEL returns:
 Original cell was already a primitive cell.
 

 Routine SETGRP: Setting up the symmetry group for a 
 hexagonal supercell.


 Subroutine GETGRP returns: Found  1 space group operations
 (whereof  1 operations were pure point group operations)
 out of a pool of 24 trial point group operations.


The constrained configuration has the point symmetry C_1 .


 Subroutine INISYM returns: Found  1 space group operations
 (whereof  1 operations are pure point group operations),
 and found     1 'primitive' translations

 
 KPOINTS: Kpoints                                 

Automatic generation of k-mesh.
 Grid dimensions read from file:
 generate k-points for:    1    1    1

 Generating k-lattice:

  Cartesian coordinates                     Fractional coordinates (reciprocal lattice)
     0.091714508  0.052951396  0.000000000     1.000000000  0.000000000  0.000000000
     0.000000000  0.105902791  0.000000000     0.000000000  1.000000000  0.000000000
     0.000000000  0.000000000  0.057297068     0.000000000  0.000000000  1.000000000

  Length of vectors
     0.105902791  0.105902791  0.057297068

  Shift w.r.t. Gamma in fractional coordinates (k-lattice)
     0.000000000  0.000000000  0.000000000

 
 Subroutine IBZKPT returns following result:
 ===========================================
 
 Found      1 irreducible k-points:
 
 Following reciprocal coordinates:
            Coordinates               Weight
  0.000000  0.000000  0.000000      1.000000
 
 Following cartesian coordinates:
            Coordinates               Weight
  0.000000  0.000000  0.000000      1.000000
 
    WAVPRE:  cpu time      0.0530: real time      0.0726
    FEWALD:  cpu time      0.0017: real time      0.0017
    ORTHCH:  cpu time      0.3988: real time      3.3895
     LOOP+:  cpu time     27.4786: real time     31.7393


--------------------------------------- Ionic step        7  -------------------------------------------




--------------------------------------- Iteration      7(   1)  ---------------------------------------


    POTLOK:  cpu time      0.0529: real time      0.0537
    SETDIJ:  cpu time      0.0086: real time      0.0086
     EDDAV:  cpu time      2.6156: real time      3.7811
       DOS:  cpu time      0.0006: real time      0.0006
    CHARGE:  cpu time      0.1244: real time      0.1248
    MIXING:  cpu time      0.0048: real time      0.0049
    --------------------------------------------
      LOOP:  cpu time      2.8069: real time      3.9738

 eigenvalue-minimisations  :   640
 total energy-change (2. order) :-0.2100622E-02  (-0.3784288E+00)
 number of electron     518.9999653 magnetization 
 augmentation part      175.9748652 magnetization 

  free energy =  -0.577404733231E+03  energy without entropy=  -0.577380248334E+03


--------------------------------------------------------------------------------------------------------




--------------------------------------- Iteration      7(   2)  ---------------------------------------


    POTLOK:  cpu time      0.0666: real time      0.0712
    SETDIJ:  cpu time      0.0118: real time      0.0118
    EDDIAG:  cpu time      0.4427: real time      0.4442
  RMM-DIIS:  cpu time      1.1171: real time      1.1211
    ORTHCH:  cpu time      0.1425: real time      0.1430
       DOS:  cpu time      0.0018: real time      0.0018
    CHARGE:  cpu time      0.1295: real time      0.1300
    MIXING:  cpu time      0.0020: real time      0.0020
    --------------------------------------------
      LOOP:  cpu time      1.9138: real time      1.9250

 eigenvalue-minimisations  :   646
 total energy-change (2. order) :-0.6435119E-03  (-0.3046072E-02)
 number of electron     518.9999653 magnetization 
 augmentation part      175.8749977 magnetization 

 eigenvalues of (default mixing * dielectric matrix)
  average eigenvalue GAMMA=   0.4490
  0.4490

  free energy =  -0.577405376743E+03  energy without entropy=  -0.577379912680E+03


--------------------------------------------------------------------------------------------------------




--------------------------------------- Iteration      7(   3)  ---------------------------------------


    POTLOK:  cpu time      0.0621: real time      0.0629
    SETDIJ:  cpu time      0.0085: real time      0.0085
    EDDIAG:  cpu time      0.4973: real time      0.5001
  RMM-DIIS:  cpu time      1.1988: real time      1.2039
    ORTHCH:  cpu time      0.1017: real time      0.1021
       DOS:  cpu time      0.0015: real time      0.0015
    CHARGE:  cpu time      0.1207: real time      0.1212
    MIXING:  cpu time      0.0018: real time      0.0018
    --------------------------------------------
      LOOP:  cpu time      1.9923: real time      2.0021

 eigenvalue-minimisations  :   660
 total energy-change (2. order) :-0.3034182E-02  (-0.1098927E-02)
 number of electron     518.9999653 magnetization 
 augmentation part      176.0171466 magnetization 

 eigenvalues of (default mixing * dielectric matrix)
  average eigenvalue GAMMA=   0.6270
  1.1239  0.1302

  free energy =  -0.577408410925E+03  energy without entropy=  -0.577385304943E+03


--------------------------------------------------------------------------------------------------------




--------------------------------------- Iteration      7(   4)  ---------------------------------------


    POTLOK:  cpu time      0.0670: real time      0.0678
    SETDIJ:  cpu time      0.0082: real time      0.0082
    EDDIAG:  cpu time      0.4068: real time      0.4087
  RMM-DIIS:  cpu time      1.1035: real time      1.1087
    ORTHCH:  cpu time      0.1167: real time      0.1172
       DOS:  cpu time      0.0015: real time      0.0015
    CHARGE:  cpu time      0.1150: real time      0.1156
    MIXING:  cpu time      0.0019: real time      0.0020
    --------------------------------------------
      LOOP:  cpu time      1.8207: real time      1.8296

 eigenvalue-minimisations  :   704
 total energy-change (2. order) :-0.2387932E-02  (-0.9010409E-03)
 number of electron     518.9999653 magnetization 
 augmentation part      175.9439895 magnetization 

 eigenvalues of (default mixing * dielectric matrix)
  average eigenvalue GAMMA=   0.6067
  1.5506  0.1832  0.0862

  free energy =  -0.577410798856E+03  energy without entropy=  -0.577386430924E+03


--------------------------------------------------------------------------------------------------------




--------------------------------------- Iteration      7(   5)  ---------------------------------------


    POTLOK:  cpu time      0.0562: real time      0.0615
    SETDIJ:  cpu time      0.0089: real time      0.0090
    EDDIAG:  cpu time      0.4415: real time      0.4437
  RMM-DIIS:  cpu time      1.0866: real time      1.0916
    ORTHCH:  cpu time      0.1180: real time      0.1184
       DOS:  cpu time      0.0015: real time      0.0015
    CHARGE:  cpu time      0.1221: real time      0.1226
    MIXING:  cpu time      0.0020: real time      0.0020
    --------------------------------------------
      LOOP:  cpu time      1.8369: real time      1.8503

 eigenvalue-minimisations  :   679
 total energy-change (2. order) : 0.2598911E-02  (-0.5647705E-03)
 number of electron     518.9999653 magnetization 
 augmentation part      175.8753820 magnetization 

 eigenvalues of (default mixing * dielectric matrix)
  average eigenvalue GAMMA=   0.5383
  1.7405  0.2403  0.1084  0.0638

  free energy =  -0.577408199945E+03  energy without entropy=  -0.577384174984E+03


--------------------------------------------------------------------------------------------------------




--------------------------------------- Iteration      7(   6)  ---------------------------------------


    POTLOK:  cpu time      0.0722: real time      0.0729
    SETDIJ:  cpu time      0.0103: real time      0.0103
    EDDIAG:  cpu time      0.4228: real time      0.4245
  RMM-DIIS:  cpu time      1.2055: real time      1.2097
    ORTHCH:  cpu time      0.1136: real time      0.1140
       DOS:  cpu time      0.0015: real time      0.0015
    CHARGE:  cpu time      0.1231: real time      0.1235
    MIXING:  cpu time      0.0020: real time      0.0020
    --------------------------------------------
      LOOP:  cpu time      1.9509: real time      1.9585

 eigenvalue-minimisations  :   691
 total energy-change (2. order) : 0.3556269E-02  (-0.4147279E-03)
 number of electron     518.9999653 magnetization 
 augmentation part      176.0443387 magnetization 

 eigenvalues of (default mixing * dielectric matrix)
  average eigenvalue GAMMA=   0.5487
  1.9158  0.4990  0.1791  0.0918  0.0581

  free energy =  -0.577404643676E+03  energy without entropy=  -0.577381275944E+03


--------------------------------------------------------------------------------------------------------




--------------------------------------- Iteration      7(   7)  ---------------------------------------


    POTLOK:  cpu time      0.0582: real time      0.0590
    SETDIJ:  cpu time      0.0100: real time      0.0100
    EDDIAG:  cpu time      0.4696: real time      0.4714
  RMM-DIIS:  cpu time      1.2696: real time      1.2737
    ORTHCH:  cpu time      0.1479: real time      0.1484
       DOS:  cpu time      0.0015: real time      0.0015
    CHARGE:  cpu time      0.1196: real time      0.1200
    MIXING:  cpu time      0.0022: real time      0.0022
    --------------------------------------------
      LOOP:  cpu time      2.0786: real time      2.0863

 eigenvalue-minimisations  :   721
 total energy-change (2. order) : 0.2075946E-03  (-0.4289698E-03)
 number of electron     518.9999653 magnetization 
 augmentation part      175.9079953 magnetization 

 eigenvalues of (default mixing * dielectric matrix)
  average eigenvalue GAMMA=   0.5864
  2.0247  0.9842  0.2247  0.1380  0.0887  0.0577

  free energy =  -0.577404436082E+03  energy without entropy=  -0.577379605718E+03


--------------------------------------------------------------------------------------------------------




--------------------------------------- Iteration      7(   8)  ---------------------------------------


    POTLOK:  cpu time      0.0536: real time      0.0585
    SETDIJ:  cpu time      0.0086: real time      0.0087
    EDDIAG:  cpu time      0.4216: real time      0.4234
  RMM-DIIS:  cpu time      1.2751: real time      1.2810
    ORTHCH:  cpu time      0.1071: real time      0.1075
       DOS:  cpu time      0.0017: real time      0.0017
    CHARGE:  cpu time      0.1264: real time      0.1270
    MIXING:  cpu time      0.0022: real time      0.0022
    --------------------------------------------
      LOOP:  cpu time      1.9964: real time      2.0100

 eigenvalue-minimisations  :   696
 total energy-change (2. order) : 0.2484618E-03  (-0.2858506E-03)
 number of electron     518.9999653 magnetization 
 augmentation part      175.9284603 magnetization 

 eigenvalues of (default mixing * dielectric matrix)
  average eigenvalue GAMMA=   0.5562
  2.0836  1.1212  0.2534  0.1697  0.1231  0.0850  0.0574

  free energy =  -0.577404187620E+03  energy without entropy=  -0.577379095737E+03


--------------------------------------------------------------------------------------------------------




--------------------------------------- Iteration      7(   9)  ---------------------------------------


    POTLOK:  cpu time      0.0714: real time      0.0721
    SETDIJ:  cpu time      0.0087: real time      0.0087
    EDDIAG:  cpu time      0.4399: real time      0.4420
  RMM-DIIS:  cpu time      1.2284: real time      1.2337
    ORTHCH:  cpu time      0.1257: real time      0.1262
       DOS:  cpu time      0.0017: real time      0.0017
    CHARGE:  cpu time      0.1276: real time      0.1281
    MIXING:  cpu time      0.0023: real time      0.0023
    --------------------------------------------
      LOOP:  cpu time      2.0056: real time      2.0150

 eigenvalue-minimisations  :   661
 total energy-change (2. order) : 0.6017091E-03  (-0.1294498E-03)
 number of electron     518.9999653 magnetization 
 augmentation part      175.9312537 magnetization 

 eigenvalues of (default mixing * dielectric matrix)
  average eigenvalue GAMMA=   0.5226
  2.1310  1.1557  0.3050  0.2059  0.1432  0.0575  0.0848  0.0981

  free energy =  -0.577403585911E+03  energy without entropy=  -0.577379167699E+03


--------------------------------------------------------------------------------------------------------




--------------------------------------- Iteration      7(  10)  ---------------------------------------


    POTLOK:  cpu time      0.0640: real time      0.0646
    SETDIJ:  cpu time      0.0088: real time      0.0088
    EDDIAG:  cpu time      0.4610: real time      0.4634
  RMM-DIIS:  cpu time      1.1576: real time      1.1634
    ORTHCH:  cpu time      0.1043: real time      0.1047
       DOS:  cpu time      0.0016: real time      0.0016
    CHARGE:  cpu time      0.1239: real time      0.1244
    MIXING:  cpu time      0.0023: real time      0.0023
    --------------------------------------------
      LOOP:  cpu time      1.9233: real time      1.9332

 eigenvalue-minimisations  :   656
 total energy-change (2. order) : 0.4055434E-03  (-0.5209654E-04)
 number of electron     518.9999653 magnetization 
 augmentation part      175.9448118 magnetization 

 eigenvalues of (default mixing * dielectric matrix)
  average eigenvalue GAMMA=   0.5013
  2.1946  1.1313  0.4049  0.2348  0.1843  0.1334  0.0574  0.0905  0.0807

  free energy =  -0.577403180367E+03  energy without entropy=  -0.577378183991E+03


--------------------------------------------------------------------------------------------------------




--------------------------------------- Iteration      7(  11)  ---------------------------------------


    POTLOK:  cpu time      0.0582: real time      0.0619
    SETDIJ:  cpu time      0.0087: real time      0.0087
    EDDIAG:  cpu time      0.4300: real time      0.4318
  RMM-DIIS:  cpu time      1.1225: real time      1.1270
    ORTHCH:  cpu time      0.1234: real time      0.1239
       DOS:  cpu time      0.0016: real time      0.0015
    CHARGE:  cpu time      0.1215: real time      0.1220
    MIXING:  cpu time      0.0027: real time      0.0027
    --------------------------------------------
      LOOP:  cpu time      1.8686: real time      1.8796

 eigenvalue-minimisations  :   647
 total energy-change (2. order) : 0.1843296E-03  (-0.1631949E-04)
 number of electron     518.9999653 magnetization 
 augmentation part      175.9434344 magnetization 

 eigenvalues of (default mixing * dielectric matrix)
  average eigenvalue GAMMA=   0.4793
  2.2395  1.0873  0.5106  0.2475  0.2128  0.1500  0.1235  0.0574  0.0879  0.0762

  free energy =  -0.577402996038E+03  energy without entropy=  -0.577378155904E+03


--------------------------------------------------------------------------------------------------------




--------------------------------------- Iteration      7(  12)  ---------------------------------------


    POTLOK:  cpu time      0.0604: real time      0.0611
    SETDIJ:  cpu time      0.0088: real time      0.0088
    EDDIAG:  cpu time      0.4840: real time      0.7605
  RMM-DIIS:  cpu time      1.0266: real time      1.0301
    ORTHCH:  cpu time      0.1014: real time      0.1018
       DOS:  cpu time      0.0015: real time      0.0015
    CHARGE:  cpu time      0.1204: real time      0.1208
    MIXING:  cpu time      0.0024: real time      0.0024
    --------------------------------------------
      LOOP:  cpu time      1.8056: real time      2.0870

 eigenvalue-minimisations  :   556
 total energy-change (2. order) : 0.5507973E-04  (-0.6945979E-05)
 number of electron     518.9999653 magnetization 
 augmentation part      175.9492802 magnetization 

 eigenvalues of (default mixing * dielectric matrix)
  average eigenvalue GAMMA=   0.4893
  2.3279  0.9168  0.9168  0.3253  0.2567  0.1820  0.1350  0.0574  0.1050  0.0863
  0.0728

  free energy =  -0.577402940958E+03  energy without entropy=  -0.577378142131E+03


--------------------------------------------------------------------------------------------------------




--------------------------------------- Iteration      7(  13)  ---------------------------------------


    POTLOK:  cpu time      0.0585: real time      0.0591
    SETDIJ:  cpu time      0.0084: real time      0.0084
    EDDIAG:  cpu time      0.4312: real time      0.4333
  RMM-DIIS:  cpu time      0.9203: real time      0.9241
    ORTHCH:  cpu time      0.1054: real time      0.1059
       DOS:  cpu time      0.0015: real time      0.0015
    CHARGE:  cpu time      0.1220: real time      0.1225
    MIXING:  cpu time      0.0025: real time      0.0025
    --------------------------------------------
      LOOP:  cpu time      1.6499: real time      1.6573

 eigenvalue-minimisations  :   474
 total energy-change (2. order) : 0.1720693E-04  (-0.4694561E-05)
 number of electron     518.9999653 magnetization 
 augmentation part      175.9453010 magnetization 

 eigenvalues of (default mixing * dielectric matrix)
  average eigenvalue GAMMA=   0.4998
  2.3977  1.0612  1.0612  0.3737  0.2813  0.1986  0.1759  0.1329  0.0574  0.1005
  0.0859  0.0718

  free energy =  -0.577402923751E+03  energy without entropy=  -0.577378069794E+03


--------------------------------------------------------------------------------------------------------




--------------------------------------- Iteration      7(  14)  ---------------------------------------


    POTLOK:  cpu time      0.0655: real time      0.0700
    SETDIJ:  cpu time      0.0087: real time      0.0088
    EDDIAG:  cpu time      0.4189: real time      0.4208
  RMM-DIIS:  cpu time      0.7071: real time      0.7102
    ORTHCH:  cpu time      0.1321: real time      0.1327
       DOS:  cpu time      0.0016: real time      0.0016
    --------------------------------------------
      LOOP:  cpu time      1.3340: real time      1.3441

 eigenvalue-minimisations  :   400
 total energy-change (2. order) : 0.9181298E-05  (-0.2430279E-05)
 number of electron     518.9999653 magnetization 
 augmentation part      175.9453010 magnetization 

  free energy =  -0.577402914570E+03  energy without entropy=  -0.577378022333E+03


--------------------------------------------------------------------------------------------------------




------------------------ aborting loop because EDIFF is reached ----------------------------------------





 total charge

# of ion       s       p       d       tot
------------------------------------------
    1        0.610   0.534   6.499   7.642
    2        0.610   0.531   6.507   7.648
    3        0.608   0.536   6.499   7.643
    4        0.605   0.532   6.507   7.644
    5        0.610   0.534   6.499   7.643
    6        0.609   0.534   6.497   7.641
    7        0.605   0.532   6.509   7.646
    8        0.608   0.536   6.498   7.642
    9        0.608   0.533   6.504   7.644
   10        0.605   0.536   6.504   7.645
   11        0.607   0.536   6.501   7.643
   12        0.607   0.536   6.502   7.645
   13        0.604   0.540   6.497   7.641
   14        0.605   0.536   6.502   7.644
   15        0.609   0.535   6.499   7.643
   16        0.609   0.535   6.498   7.642
   17        0.632   0.774   6.569   7.975
   18        0.632   0.774   6.570   7.976
   19        0.630   0.774   6.567   7.972
   20        0.629   0.770   6.560   7.959
   21        0.630   0.771   6.571   7.972
   22        0.630   0.771   6.571   7.972
   23        0.630   0.774   6.567   7.972
   24        0.631   0.772   6.572   7.975
   25        0.631   0.774   6.568   7.973
   26        0.631   0.774   6.568   7.973
   27        0.628   0.774   6.564   7.966
   28        0.632   0.774   6.564   7.970
   29        0.631   0.774   6.568   7.973
   30        0.631   0.774   6.568   7.973
   31        0.630   0.775   6.564   7.969
   32        0.632   0.774   6.564   7.970
   33        0.642   0.806   6.594   8.041
   34        0.647   0.817   6.589   8.053
   35        0.642   0.805   6.594   8.041
   36        0.639   0.794   6.582   8.015
   37        0.642   0.806   6.594   8.041
   38        0.642   0.799   6.596   8.037
   39        0.639   0.794   6.582   8.015
   40        0.642   0.805   6.594   8.041
   41        0.644   0.804   6.588   8.037
   42        0.643   0.796   6.595   8.033
   43        0.643   0.802   6.597   8.042
   44        0.643   0.802   6.597   8.042
   45        0.633   0.790   6.568   7.992
   46        0.643   0.796   6.595   8.033
   47        0.645   0.807   6.591   8.042
   48        0.645   0.807   6.591   8.042
   49        0.625   0.570   6.542   7.736
   50        0.625   0.570   6.544   7.738
   51        0.623   0.551   6.545   7.720
   52        0.623   0.561   6.575   7.759
   53        0.629   0.571   6.544   7.744
   54        0.629   0.571   6.546   7.745
   55        0.623   0.551   6.546   7.721
   56        0.626   0.552   6.539   7.717
   57        0.622   0.550   6.546   7.718
   58        0.600   0.661   6.556   7.816
   59        0.617   0.556   6.546   7.719
   60        0.623   0.552   6.546   7.721
   61        0.600   0.661   6.556   7.816
   62        0.622   0.550   6.547   7.719
   63        0.625   0.553   6.573   7.751
   64        0.623   0.552   6.545   7.720
   65        1.218   2.619   0.000   3.837
   66        0.625   0.079   0.000   0.703
   67        0.627   0.079   0.000   0.705
--------------------------------------------------
tot         42.484  45.667 419.337 507.488
 
    CHARGE:  cpu time      0.1094: real time      0.1098
    FORLOC:  cpu time      0.0151: real time      0.0151
    FORNL :  cpu time      0.4875: real time      0.4896
    STRESS:  cpu time      1.4604: real time      1.4666
    FORCOR:  cpu time      0.0710: real time      0.0713
    FORHAR:  cpu time      0.0246: real time      0.0247
    MIXING:  cpu time      0.0023: real time      0.0023
    OFIELD:  cpu time      0.0000: real time      0.0000

  FORCE on cell =-STRESS in cart. coord.  units (eV):
  Direction    XX          YY          ZZ          XY          YZ          ZX
  --------------------------------------------------------------------------------------
  Alpha Z  1067.80299  1067.80299  1067.80299
  Ewald   80388.41249 80413.71435************     0.08218     1.19306    -0.02615
  Hartree 87901.94024 87901.89341-86379.19962     0.00182     0.53152    -0.01569
  E(xc)   -2442.55877 -2442.00840 -2432.87931     0.00010     0.06963     0.00049
  Local  ************************181927.48677    -0.07793    -0.65528     0.04692
  n-local   694.18328   694.55338   587.71239     0.00376    -0.77399    -0.00077
  augment  2920.28514  2918.44427  2845.50488    -0.00375    -0.26549    -0.00333
  Kinetic  6147.23886  6126.35655  6053.32057    -0.03205    -0.85666     0.00573
  Fock        0.00000     0.00000     0.00000     0.00000     0.00000     0.00000
  -------------------------------------------------------------------------------------
  Total     -62.70314   -66.36816   -53.42647    -0.02588    -0.75723     0.00719
  in kB     -55.90848   -59.17636   -47.63706    -0.02307    -0.67517     0.00641
  external pressure =      -54.24 kB  Pullay stress =        0.00 kB



--------------------------------------------------------------------------------------------------------



  FREE ENERGIE OF THE ION-ELECTRON SYSTEM (eV)
  ---------------------------------------------------
  free  energy   TOTEN  =      -577.40291457 eV

  energy  without entropy=     -577.37802233  energy(sigma->0) =     -577.39046845
 
 d Force = 0.3053948E-03[-0.189E-01, 0.196E-01]  d Energy = 0.2904357E-03 0.150E-04
 d Force =-0.2727223E+02[-0.274E+02,-0.272E+02]  d Ewald  =-0.2727176E+02-0.469E-03


--------------------------------------------------------------------------------------------------------


    POTLOK:  cpu time      0.0723: real time      0.0727


--------------------------------------------------------------------------------------------------------


 Finite differences progress:
  Degree of freedom:   3/  9
  Displacement:        2/  2
  Total:               6/ 18
  LATTYP: Found a hexagonal cell.
 ALAT       =    10.9034004211
 C/A-ratio  =     1.6006841223
  
  Lattice vectors:
  
 A1 = (  10.9034004211,   0.0000000000,   0.0000000000)
 A2 = (  -5.4517002106,   9.4426217523,   0.0000000000)
 A3 = (   0.0000000000,   0.0000000000,  17.4528999329)


Analysis of symmetry for initial positions (statically):
=====================================================================
 Subroutine PRICEL returns:
 Original cell was already a primitive cell.
 

 Routine SETGRP: Setting up the symmetry group for a 
 hexagonal supercell.


 Subroutine GETGRP returns: Found  1 space group operations
 (whereof  1 operations were pure point group operations)
 out of a pool of 24 trial point group operations.


The static configuration has the point symmetry C_1 .


Analysis of symmetry for dynamics (positions and initial velocities):
=====================================================================
 Subroutine PRICEL returns:
 Original cell was already a primitive cell.
 

 Routine SETGRP: Setting up the symmetry group for a 
 hexagonal supercell.


 Subroutine GETGRP returns: Found  1 space group operations
 (whereof  1 operations were pure point group operations)
 out of a pool of 24 trial point group operations.


The dynamic configuration has the point symmetry C_1 .


Analysis of constrained symmetry for selective dynamics:
=====================================================================
 Subroutine PRICEL returns:
 Original cell was already a primitive cell.
 

 Routine SETGRP: Setting up the symmetry group for a 
 hexagonal supercell.


 Subroutine GETGRP returns: Found  1 space group operations
 (whereof  1 operations were pure point group operations)
 out of a pool of 24 trial point group operations.


The constrained configuration has the point symmetry C_1 .


 Subroutine INISYM returns: Found  1 space group operations
 (whereof  1 operations are pure point group operations),
 and found     1 'primitive' translations

 
 KPOINTS: Kpoints                                 

Automatic generation of k-mesh.
 Grid dimensions read from file:
 generate k-points for:    1    1    1

 Generating k-lattice:

  Cartesian coordinates                     Fractional coordinates (reciprocal lattice)
     0.091714508  0.052951396  0.000000000     1.000000000  0.000000000  0.000000000
     0.000000000  0.105902791  0.000000000     0.000000000  1.000000000  0.000000000
     0.000000000  0.000000000  0.057297068     0.000000000  0.000000000  1.000000000

  Length of vectors
     0.105902791  0.105902791  0.057297068

  Shift w.r.t. Gamma in fractional coordinates (k-lattice)
     0.000000000  0.000000000  0.000000000

 
 Subroutine IBZKPT returns following result:
 ===========================================
 
 Found      1 irreducible k-points:
 
 Following reciprocal coordinates:
            Coordinates               Weight
  0.000000  0.000000  0.000000      1.000000
 
 Following cartesian coordinates:
            Coordinates               Weight
  0.000000  0.000000  0.000000      1.000000
 
    WAVPRE:  cpu time      0.0547: real time      0.0816
    FEWALD:  cpu time      0.0017: real time      0.0017
    ORTHCH:  cpu time      0.4133: real time      3.3993
     LOOP+:  cpu time     29.7303: real time     34.3271


--------------------------------------- Ionic step        8  -------------------------------------------




--------------------------------------- Iteration      8(   1)  ---------------------------------------


    POTLOK:  cpu time      0.0560: real time      0.0567
    SETDIJ:  cpu time      0.0089: real time      0.0089
     EDDAV:  cpu time      2.5648: real time      3.7148
       DOS:  cpu time      0.0007: real time      0.0007
    CHARGE:  cpu time      0.1149: real time      0.1154
    MIXING:  cpu time      0.0040: real time      0.0040
    --------------------------------------------
      LOOP:  cpu time      2.7492: real time      3.9005

 eigenvalue-minimisations  :   640
 total energy-change (2. order) :-0.4776816E-02  (-0.1018923E+00)
 number of electron     518.9999649 magnetization 
 augmentation part      175.9324609 magnetization 

  free energy =  -0.577407700567E+03  energy without entropy=  -0.577382650477E+03


--------------------------------------------------------------------------------------------------------




--------------------------------------- Iteration      8(   2)  ---------------------------------------


    POTLOK:  cpu time      0.0911: real time      0.0919
    SETDIJ:  cpu time      0.0084: real time      0.0085
    EDDIAG:  cpu time      0.3984: real time      0.4003
  RMM-DIIS:  cpu time      1.0709: real time      1.0760
    ORTHCH:  cpu time      0.0983: real time      0.0988
       DOS:  cpu time      0.0014: real time      0.0014
    CHARGE:  cpu time      0.1181: real time      0.1185
    MIXING:  cpu time      0.0018: real time      0.0018
    --------------------------------------------
      LOOP:  cpu time      1.7884: real time      1.7972

 eigenvalue-minimisations  :   647
 total energy-change (2. order) :-0.5429457E-03  (-0.8694938E-03)
 number of electron     518.9999649 magnetization 
 augmentation part      175.9782270 magnetization 

 eigenvalues of (default mixing * dielectric matrix)
  average eigenvalue GAMMA=   0.3790
  0.3790

  free energy =  -0.577408243512E+03  energy without entropy=  -0.577383909465E+03


--------------------------------------------------------------------------------------------------------




--------------------------------------- Iteration      8(   3)  ---------------------------------------


    POTLOK:  cpu time      0.0552: real time      0.0580
    SETDIJ:  cpu time      0.0086: real time      0.0086
    EDDIAG:  cpu time      0.4353: real time      0.4796
  RMM-DIIS:  cpu time      1.0443: real time      1.0480
    ORTHCH:  cpu time      0.1150: real time      0.1155
       DOS:  cpu time      0.0016: real time      0.0016
    CHARGE:  cpu time      0.1151: real time      0.1156
    MIXING:  cpu time      0.0018: real time      0.0018
    --------------------------------------------
      LOOP:  cpu time      1.7770: real time      1.8286

 eigenvalue-minimisations  :   654
 total energy-change (2. order) :-0.8186856E-03  (-0.3346288E-03)
 number of electron     518.9999649 magnetization 
 augmentation part      175.9203515 magnetization 

 eigenvalues of (default mixing * dielectric matrix)
  average eigenvalue GAMMA=   0.6409
  1.1699  0.1119

  free energy =  -0.577409062198E+03  energy without entropy=  -0.577384471536E+03


--------------------------------------------------------------------------------------------------------




--------------------------------------- Iteration      8(   4)  ---------------------------------------


    POTLOK:  cpu time      0.0727: real time      0.0761
    SETDIJ:  cpu time      0.0085: real time      0.0085
    EDDIAG:  cpu time      0.6961: real time      0.6988
  RMM-DIIS:  cpu time      1.1377: real time      1.1419
    ORTHCH:  cpu time      0.1018: real time      0.1022
       DOS:  cpu time      0.0016: real time      0.0016
    CHARGE:  cpu time      0.1203: real time      0.1207
    MIXING:  cpu time      0.0019: real time      0.0019
    --------------------------------------------
      LOOP:  cpu time      2.1405: real time      2.1517

 eigenvalue-minimisations  :   694
 total energy-change (2. order) :-0.8136331E-03  (-0.3190427E-03)
 number of electron     518.9999649 magnetization 
 augmentation part      175.9502499 magnetization 

 eigenvalues of (default mixing * dielectric matrix)
  average eigenvalue GAMMA=   0.6534
  1.6909  0.1803  0.0890

  free energy =  -0.577409875831E+03  energy without entropy=  -0.577385463191E+03


--------------------------------------------------------------------------------------------------------




--------------------------------------- Iteration      8(   5)  ---------------------------------------


    POTLOK:  cpu time      0.0596: real time      0.0602
    SETDIJ:  cpu time      0.0086: real time      0.0086
    EDDIAG:  cpu time      0.4187: real time      0.4204
  RMM-DIIS:  cpu time      1.1435: real time      1.1487
    ORTHCH:  cpu time      0.1234: real time      0.1290
       DOS:  cpu time      0.0020: real time      0.0020
    CHARGE:  cpu time      0.1296: real time      0.1302
    MIXING:  cpu time      0.0019: real time      0.0019
    --------------------------------------------
      LOOP:  cpu time      1.8874: real time      1.9010

 eigenvalue-minimisations  :   666
 total energy-change (2. order) : 0.8150474E-03  (-0.1676079E-03)
 number of electron     518.9999649 magnetization 
 augmentation part      175.9710068 magnetization 

 eigenvalues of (default mixing * dielectric matrix)
  average eigenvalue GAMMA=   0.5640
  1.8457  0.2317  0.1078  0.0706

  free energy =  -0.577409060784E+03  energy without entropy=  -0.577384169886E+03


--------------------------------------------------------------------------------------------------------




--------------------------------------- Iteration      8(   6)  ---------------------------------------


    POTLOK:  cpu time      0.0590: real time      0.0630
    SETDIJ:  cpu time      0.0090: real time      0.0090
    EDDIAG:  cpu time      0.4411: real time      0.4436
  RMM-DIIS:  cpu time      1.1693: real time      1.1751
    ORTHCH:  cpu time      0.1146: real time      0.1151
       DOS:  cpu time      0.0018: real time      0.0018
    CHARGE:  cpu time      0.1283: real time      0.1289
    MIXING:  cpu time      0.0022: real time      0.0022
    --------------------------------------------
      LOOP:  cpu time      1.9253: real time      1.9387

 eigenvalue-minimisations  :   677
 total energy-change (2. order) : 0.1146385E-02  (-0.1033528E-03)
 number of electron     518.9999649 magnetization 
 augmentation part      175.9018152 magnetization 

 eigenvalues of (default mixing * dielectric matrix)
  average eigenvalue GAMMA=   0.5468
  1.9881  0.4255  0.1684  0.0942  0.0577

  free energy =  -0.577407914399E+03  energy without entropy=  -0.577382819792E+03


--------------------------------------------------------------------------------------------------------




--------------------------------------- Iteration      8(   7)  ---------------------------------------


    POTLOK:  cpu time      0.0593: real time      0.0641
    SETDIJ:  cpu time      0.0090: real time      0.0090
    EDDIAG:  cpu time      0.4281: real time      0.4302
  RMM-DIIS:  cpu time      1.2126: real time      1.2181
    ORTHCH:  cpu time      0.1036: real time      0.1040
       DOS:  cpu time      0.0016: real time      0.0016
    CHARGE:  cpu time      0.1255: real time      0.1260
    MIXING:  cpu time      0.0021: real time      0.0021
    --------------------------------------------
      LOOP:  cpu time      1.9418: real time      1.9550

 eigenvalue-minimisations  :   714
 total energy-change (2. order) : 0.1125819E-03  (-0.1057004E-03)
 number of electron     518.9999649 magnetization 
 augmentation part      175.9729765 magnetization 

 eigenvalues of (default mixing * dielectric matrix)
  average eigenvalue GAMMA=   0.5819
  2.0608  0.9449  0.2126  0.1277  0.0890  0.0566

  free energy =  -0.577407801817E+03  energy without entropy=  -0.577383255900E+03


--------------------------------------------------------------------------------------------------------




--------------------------------------- Iteration      8(   8)  ---------------------------------------


    POTLOK:  cpu time      0.0605: real time      0.0611
    SETDIJ:  cpu time      0.0086: real time      0.0086
    EDDIAG:  cpu time      0.4229: real time      0.4244
  RMM-DIIS:  cpu time      1.1623: real time      1.1658
    ORTHCH:  cpu time      0.1129: real time      0.1133
       DOS:  cpu time      0.0015: real time      0.0015
    CHARGE:  cpu time      0.1179: real time      0.1183
    MIXING:  cpu time      0.0022: real time      0.0022
    --------------------------------------------
      LOOP:  cpu time      1.8888: real time      1.8952

 eigenvalue-minimisations  :   699
 total energy-change (2. order) :-0.7555417E-04  (-0.7447254E-04)
 number of electron     518.9999649 magnetization 
 augmentation part      175.9339599 magnetization 

 eigenvalues of (default mixing * dielectric matrix)
  average eigenvalue GAMMA=   0.5490
  2.1182  1.1040  0.2316  0.1490  0.1021  0.0817  0.0561

  free energy =  -0.577407877371E+03  energy without entropy=  -0.577383174666E+03


--------------------------------------------------------------------------------------------------------




--------------------------------------- Iteration      8(   9)  ---------------------------------------


    POTLOK:  cpu time      0.0580: real time      0.0586
    SETDIJ:  cpu time      0.0085: real time      0.0085
    EDDIAG:  cpu time      0.4113: real time      0.4127
  RMM-DIIS:  cpu time      1.0613: real time      1.0646
    ORTHCH:  cpu time      0.1251: real time      0.1255
       DOS:  cpu time      0.0015: real time      0.0015
    CHARGE:  cpu time      0.1172: real time      0.1176
    MIXING:  cpu time      0.0023: real time      0.0023
    --------------------------------------------
      LOOP:  cpu time      1.7852: real time      1.7913

 eigenvalue-minimisations  :   657
 total energy-change (2. order) : 0.2624637E-03  (-0.3229884E-04)
 number of electron     518.9999649 magnetization 
 augmentation part      175.9623755 magnetization 

 eigenvalues of (default mixing * dielectric matrix)
  average eigenvalue GAMMA=   0.5274
  2.1544  1.2018  0.2944  0.2068  0.1352  0.0566  0.0908  0.0791

  free energy =  -0.577407614908E+03  energy without entropy=  -0.577382728589E+03


--------------------------------------------------------------------------------------------------------




--------------------------------------- Iteration      8(  10)  ---------------------------------------


    POTLOK:  cpu time      0.0580: real time      0.0585
    SETDIJ:  cpu time      0.0086: real time      0.0087
    EDDIAG:  cpu time      0.4000: real time      0.4015
  RMM-DIIS:  cpu time      1.0461: real time      1.0521
    ORTHCH:  cpu time      0.1000: real time      0.1004
       DOS:  cpu time      0.0015: real time      0.0015
    CHARGE:  cpu time      0.1215: real time      0.1221
    MIXING:  cpu time      0.0023: real time      0.0023
    --------------------------------------------
      LOOP:  cpu time      1.7380: real time      1.7471

 eigenvalue-minimisations  :   651
 total energy-change (2. order) : 0.1284133E-03  (-0.1730924E-04)
 number of electron     518.9999649 magnetization 
 augmentation part      175.9473412 magnetization 

 eigenvalues of (default mixing * dielectric matrix)
  average eigenvalue GAMMA=   0.5041
  2.2023  1.2058  0.3875  0.2252  0.1673  0.1274  0.0566  0.0894  0.0753

  free energy =  -0.577407486494E+03  energy without entropy=  -0.577382697732E+03


--------------------------------------------------------------------------------------------------------




--------------------------------------- Iteration      8(  11)  ---------------------------------------


    POTLOK:  cpu time      0.0625: real time      0.0637
    SETDIJ:  cpu time      0.0087: real time      0.0088
    EDDIAG:  cpu time      0.4265: real time      0.4288
  RMM-DIIS:  cpu time      0.9261: real time      0.9306
    ORTHCH:  cpu time      0.1281: real time      0.1288
       DOS:  cpu time      0.0014: real time      0.0014
    CHARGE:  cpu time      0.1202: real time      0.1209
    MIXING:  cpu time      0.0025: real time      0.0025
    --------------------------------------------
      LOOP:  cpu time      1.6761: real time      1.6856

 eigenvalue-minimisations  :   525
 total energy-change (2. order) : 0.4554821E-04  (-0.5785241E-05)
 number of electron     518.9999649 magnetization 
 augmentation part      175.9468344 magnetization 

 eigenvalues of (default mixing * dielectric matrix)
  average eigenvalue GAMMA=   0.4879
  2.2586  1.1639  0.5357  0.2454  0.2083  0.1406  0.1088  0.0566  0.0878  0.0732

  free energy =  -0.577407440946E+03  energy without entropy=  -0.577382491494E+03


--------------------------------------------------------------------------------------------------------




--------------------------------------- Iteration      8(  12)  ---------------------------------------


    POTLOK:  cpu time      0.0621: real time      0.0629
    SETDIJ:  cpu time      0.0087: real time      0.0088
    EDDIAG:  cpu time      0.4131: real time      0.4153
  RMM-DIIS:  cpu time      0.7706: real time      0.7743
    ORTHCH:  cpu time      0.1298: real time      0.1304
       DOS:  cpu time      0.0019: real time      0.0019
    CHARGE:  cpu time      0.1213: real time      0.1219
    MIXING:  cpu time      0.0025: real time      0.0025
    --------------------------------------------
      LOOP:  cpu time      1.5100: real time      1.5180

 eigenvalue-minimisations  :   388
 total energy-change (2. order) : 0.2161437E-04  (-0.2248855E-05)
 number of electron     518.9999649 magnetization 
 augmentation part      175.9461491 magnetization 

 eigenvalues of (default mixing * dielectric matrix)
  average eigenvalue GAMMA=   0.4866
  2.3253  0.9969  0.8453  0.2909  0.2574  0.1854  0.1351  0.0566  0.1005  0.0864
  0.0725

  free energy =  -0.577407419332E+03  energy without entropy=  -0.577382501508E+03


--------------------------------------------------------------------------------------------------------




--------------------------------------- Iteration      8(  13)  ---------------------------------------


    POTLOK:  cpu time      0.0602: real time      0.0609
    SETDIJ:  cpu time      0.0087: real time      0.0087
    EDDIAG:  cpu time      0.4244: real time      0.4265
  RMM-DIIS:  cpu time      0.6933: real time      0.6960
    ORTHCH:  cpu time      0.1179: real time      0.1184
       DOS:  cpu time      0.0018: real time      0.0018
    --------------------------------------------
      LOOP:  cpu time      1.3063: real time      1.3123

 eigenvalue-minimisations  :   354
 total energy-change (2. order) : 0.4100300E-05  (-0.1173305E-05)
 number of electron     518.9999649 magnetization 
 augmentation part      175.9461491 magnetization 

  free energy =  -0.577407415231E+03  energy without entropy=  -0.577382482453E+03


--------------------------------------------------------------------------------------------------------




------------------------ aborting loop because EDIFF is reached ----------------------------------------





 total charge

# of ion       s       p       d       tot
------------------------------------------
    1        0.610   0.534   6.501   7.644
    2        0.610   0.531   6.505   7.647
    3        0.608   0.536   6.500   7.644
    4        0.605   0.532   6.508   7.645
    5        0.610   0.534   6.501   7.644
    6        0.609   0.534   6.495   7.638
    7        0.605   0.532   6.509   7.647
    8        0.608   0.536   6.499   7.643
    9        0.608   0.533   6.505   7.646
   10        0.605   0.536   6.503   7.645
   11        0.607   0.536   6.500   7.643
   12        0.607   0.536   6.502   7.644
   13        0.604   0.540   6.496   7.641
   14        0.605   0.536   6.502   7.644
   15        0.609   0.535   6.500   7.644
   16        0.609   0.535   6.499   7.643
   17        0.632   0.774   6.569   7.975
   18        0.632   0.774   6.569   7.975
   19        0.630   0.774   6.567   7.972
   20        0.629   0.770   6.560   7.959
   21        0.630   0.771   6.571   7.971
   22        0.630   0.771   6.571   7.972
   23        0.630   0.774   6.568   7.972
   24        0.631   0.772   6.572   7.975
   25        0.631   0.774   6.568   7.973
   26        0.631   0.774   6.567   7.973
   27        0.629   0.774   6.564   7.966
   28        0.632   0.774   6.564   7.970
   29        0.631   0.774   6.567   7.973
   30        0.631   0.774   6.567   7.973
   31        0.630   0.776   6.563   7.969
   32        0.632   0.774   6.564   7.970
   33        0.642   0.806   6.594   8.041
   34        0.647   0.817   6.589   8.053
   35        0.642   0.805   6.594   8.041
   36        0.639   0.794   6.581   8.015
   37        0.642   0.806   6.593   8.041
   38        0.642   0.799   6.596   8.036
   39        0.639   0.794   6.581   8.015
   40        0.642   0.805   6.594   8.041
   41        0.644   0.804   6.588   8.037
   42        0.643   0.796   6.594   8.032
   43        0.643   0.802   6.597   8.042
   44        0.643   0.802   6.597   8.042
   45        0.633   0.790   6.568   7.991
   46        0.643   0.796   6.594   8.032
   47        0.645   0.807   6.591   8.042
   48        0.645   0.807   6.591   8.042
   49        0.625   0.570   6.542   7.737
   50        0.625   0.570   6.544   7.738
   51        0.623   0.551   6.546   7.720
   52        0.623   0.561   6.574   7.759
   53        0.629   0.571   6.544   7.744
   54        0.629   0.571   6.546   7.745
   55        0.623   0.551   6.546   7.720
   56        0.626   0.552   6.539   7.716
   57        0.622   0.550   6.547   7.718
   58        0.598   0.657   6.551   7.806
   59        0.617   0.556   6.546   7.718
   60        0.622   0.552   6.547   7.722
   61        0.598   0.657   6.551   7.806
   62        0.622   0.550   6.547   7.718
   63        0.625   0.553   6.572   7.750
   64        0.622   0.552   6.546   7.721
   65        1.218   2.628   0.000   3.846
   66        0.633   0.082   0.000   0.715
   67        0.635   0.082   0.000   0.718
--------------------------------------------------
tot         42.498  45.676 419.325 507.499
 
    CHARGE:  cpu time      0.1230: real time      0.1235
    FORLOC:  cpu time      0.0151: real time      0.0152
    FORNL :  cpu time      0.5113: real time      0.5132
    STRESS:  cpu time      1.5399: real time      1.5455
    FORCOR:  cpu time      0.0608: real time      0.0610
    FORHAR:  cpu time      0.0252: real time      0.0253
    MIXING:  cpu time      0.0022: real time      0.0022
    OFIELD:  cpu time      0.0000: real time      0.0000

  FORCE on cell =-STRESS in cart. coord.  units (eV):
  Direction    XX          YY          ZZ          XY          YZ          ZX
  --------------------------------------------------------------------------------------
  Alpha Z  1067.80299  1067.80299  1067.80299
  Ewald   80372.18218 80401.77880************     0.96496     1.17237     0.53288
  Hartree 87884.69485 87885.40866-86361.82350     0.23969     0.54223     0.11630
  E(xc)   -2442.57058 -2442.04211 -2432.87819     0.00326     0.06377     0.00577
  Local  ************************181895.57371    -1.01941    -0.71776    -0.49161
  n-local   693.90833   694.28976   587.28449    -0.00380    -0.72091    -0.01979
  augment  2920.26849  2918.51258  2845.46273     0.00581    -0.25004    -0.01100
  Kinetic  6147.39125  6126.29508  6053.75611    -0.22137    -0.79465    -0.16011
  Fock        0.00000     0.00000     0.00000     0.00000     0.00000     0.00000
  -------------------------------------------------------------------------------------
  Total     -62.98536   -66.03235   -53.50083    -0.03087    -0.70500    -0.02758
  in kB     -56.16012   -58.87693   -47.70336    -0.02753    -0.62860    -0.02459
  external pressure =      -54.25 kB  Pullay stress =        0.00 kB



--------------------------------------------------------------------------------------------------------



  FREE ENERGIE OF THE ION-ELECTRON SYSTEM (eV)
  ---------------------------------------------------
  free  energy   TOTEN  =      -577.40741523 eV

  energy  without entropy=     -577.38248245  energy(sigma->0) =     -577.39494884
 
 d Force = 0.4512280E-02[-0.457E-03, 0.948E-02]  d Energy = 0.4500662E-02 0.116E-04
 d Force = 0.1367009E+02[ 0.137E+02, 0.137E+02]  d Ewald  = 0.1366994E+02 0.152E-03


--------------------------------------------------------------------------------------------------------


    POTLOK:  cpu time      0.0629: real time      0.0632


--------------------------------------------------------------------------------------------------------


 Finite differences progress:
  Degree of freedom:   4/  9
  Displacement:        1/  2
  Total:               7/ 18
  LATTYP: Found a hexagonal cell.
 ALAT       =    10.9034004211
 C/A-ratio  =     1.6006841223
  
  Lattice vectors:
  
 A1 = (  10.9034004211,   0.0000000000,   0.0000000000)
 A2 = (  -5.4517002106,   9.4426217523,   0.0000000000)
 A3 = (   0.0000000000,   0.0000000000,  17.4528999329)


Analysis of symmetry for initial positions (statically):
=====================================================================
 Subroutine PRICEL returns:
 Original cell was already a primitive cell.
 

 Routine SETGRP: Setting up the symmetry group for a 
 hexagonal supercell.


 Subroutine GETGRP returns: Found  1 space group operations
 (whereof  1 operations were pure point group operations)
 out of a pool of 24 trial point group operations.


The static configuration has the point symmetry C_1 .


Analysis of symmetry for dynamics (positions and initial velocities):
=====================================================================
 Subroutine PRICEL returns:
 Original cell was already a primitive cell.
 

 Routine SETGRP: Setting up the symmetry group for a 
 hexagonal supercell.


 Subroutine GETGRP returns: Found  1 space group operations
 (whereof  1 operations were pure point group operations)
 out of a pool of 24 trial point group operations.


The dynamic configuration has the point symmetry C_1 .


Analysis of constrained symmetry for selective dynamics:
=====================================================================
 Subroutine PRICEL returns:
 Original cell was already a primitive cell.
 

 Routine SETGRP: Setting up the symmetry group for a 
 hexagonal supercell.


 Subroutine GETGRP returns: Found  1 space group operations
 (whereof  1 operations were pure point group operations)
 out of a pool of 24 trial point group operations.


The constrained configuration has the point symmetry C_1 .


 Subroutine INISYM returns: Found  1 space group operations
 (whereof  1 operations are pure point group operations),
 and found     1 'primitive' translations

 
 KPOINTS: Kpoints                                 

Automatic generation of k-mesh.
 Grid dimensions read from file:
 generate k-points for:    1    1    1

 Generating k-lattice:

  Cartesian coordinates                     Fractional coordinates (reciprocal lattice)
     0.091714508  0.052951396  0.000000000     1.000000000  0.000000000  0.000000000
     0.000000000  0.105902791  0.000000000     0.000000000  1.000000000  0.000000000
     0.000000000  0.000000000  0.057297068     0.000000000  0.000000000  1.000000000

  Length of vectors
     0.105902791  0.105902791  0.057297068

  Shift w.r.t. Gamma in fractional coordinates (k-lattice)
     0.000000000  0.000000000  0.000000000

 
 Subroutine IBZKPT returns following result:
 ===========================================
 
 Found      1 irreducible k-points:
 
 Following reciprocal coordinates:
            Coordinates               Weight
  0.000000  0.000000  0.000000      1.000000
 
 Following cartesian coordinates:
            Coordinates               Weight
  0.000000  0.000000  0.000000      1.000000
 
    WAVPRE:  cpu time      0.0537: real time      0.1106
    FEWALD:  cpu time      0.0017: real time      0.0017
    ORTHCH:  cpu time      0.4024: real time      3.4035
     LOOP+:  cpu time     26.9453: real time     31.3255


--------------------------------------- Ionic step        9  -------------------------------------------




--------------------------------------- Iteration      9(   1)  ---------------------------------------


    POTLOK:  cpu time      0.0547: real time      0.0554
    SETDIJ:  cpu time      0.0085: real time      0.0086
     EDDAV:  cpu time      2.7298: real time      4.8259
       DOS:  cpu time      0.0005: real time      0.0005
    CHARGE:  cpu time      0.1149: real time      0.1152
    MIXING:  cpu time      0.0018: real time      0.0018
    --------------------------------------------
      LOOP:  cpu time      2.9101: real time      5.0074

 eigenvalue-minimisations  :   704
 total energy-change (2. order) : 0.4192168E-03  (-0.2950938E-01)
 number of electron     518.9999649 magnetization 
 augmentation part      175.9463847 magnetization 

  free energy =  -0.577407000115E+03  energy without entropy=  -0.577382079267E+03


--------------------------------------------------------------------------------------------------------




--------------------------------------- Iteration      9(   2)  ---------------------------------------


    POTLOK:  cpu time      0.0581: real time      0.0621
    SETDIJ:  cpu time      0.0117: real time      0.0118
    EDDIAG:  cpu time      0.4742: real time      0.4760
  RMM-DIIS:  cpu time      1.2391: real time      1.2442
    ORTHCH:  cpu time      0.1157: real time      0.1162
       DOS:  cpu time      0.0018: real time      0.0018
    CHARGE:  cpu time      0.1278: real time      0.1284
    MIXING:  cpu time      0.0018: real time      0.0018
    --------------------------------------------
      LOOP:  cpu time      2.0302: real time      2.0424

 eigenvalue-minimisations  :   658
 total energy-change (2. order) :-0.4336797E-03  (-0.1816082E-03)
 number of electron     518.9999649 magnetization 
 augmentation part      175.9511472 magnetization 

 eigenvalues of (default mixing * dielectric matrix)
  average eigenvalue GAMMA=   0.3658
  0.3658

  free energy =  -0.577407433795E+03  energy without entropy=  -0.577382584221E+03


--------------------------------------------------------------------------------------------------------




--------------------------------------- Iteration      9(   3)  ---------------------------------------


    POTLOK:  cpu time      0.0571: real time      0.0610
    SETDIJ:  cpu time      0.0088: real time      0.0088
    EDDIAG:  cpu time      0.4433: real time      0.4455
  RMM-DIIS:  cpu time      1.2327: real time      1.2381
    ORTHCH:  cpu time      0.1266: real time      0.1271
       DOS:  cpu time      0.0018: real time      0.0017
    CHARGE:  cpu time      0.1203: real time      0.1208
    MIXING:  cpu time      0.0020: real time      0.0020
    --------------------------------------------
      LOOP:  cpu time      1.9924: real time      2.0051

 eigenvalue-minimisations  :   666
 total energy-change (2. order) :-0.3279948E-03  (-0.9495745E-04)
 number of electron     518.9999649 magnetization 
 augmentation part      175.9414688 magnetization 

 eigenvalues of (default mixing * dielectric matrix)
  average eigenvalue GAMMA=   0.9707
  1.8430  0.0984

  free energy =  -0.577407761789E+03  energy without entropy=  -0.577383081529E+03


--------------------------------------------------------------------------------------------------------




--------------------------------------- Iteration      9(   4)  ---------------------------------------


    POTLOK:  cpu time      0.0580: real time      0.0618
    SETDIJ:  cpu time      0.0087: real time      0.0088
    EDDIAG:  cpu time      0.4294: real time      0.4314
  RMM-DIIS:  cpu time      1.3102: real time      1.3161
    ORTHCH:  cpu time      0.1486: real time      0.1493
       DOS:  cpu time      0.0018: real time      0.0018
    CHARGE:  cpu time      0.1219: real time      0.1224
    MIXING:  cpu time      0.0020: real time      0.0020
    --------------------------------------------
      LOOP:  cpu time      2.0806: real time      2.0935

 eigenvalue-minimisations  :   763
 total energy-change (2. order) :-0.5859135E-03  (-0.1633688E-03)
 number of electron     518.9999649 magnetization 
 augmentation part      175.9454120 magnetization 

 eigenvalues of (default mixing * dielectric matrix)
  average eigenvalue GAMMA=   0.8894
  2.4111  0.1677  0.0893

  free energy =  -0.577408347703E+03  energy without entropy=  -0.577383511286E+03


--------------------------------------------------------------------------------------------------------




--------------------------------------- Iteration      9(   5)  ---------------------------------------


    POTLOK:  cpu time      0.0591: real time      0.0597
    SETDIJ:  cpu time      0.0088: real time      0.0089
    EDDIAG:  cpu time      0.4691: real time      0.4711
  RMM-DIIS:  cpu time      1.1725: real time      1.1762
    ORTHCH:  cpu time      0.1081: real time      0.1085
       DOS:  cpu time      0.0015: real time      0.0015
    CHARGE:  cpu time      0.1186: real time      0.1190
    MIXING:  cpu time      0.0021: real time      0.0021
    --------------------------------------------
      LOOP:  cpu time      1.9397: real time      1.9469

 eigenvalue-minimisations  :   678
 total energy-change (2. order) : 0.5242682E-03  (-0.7891477E-04)
 number of electron     518.9999649 magnetization 
 augmentation part      175.9603862 magnetization 

 eigenvalues of (default mixing * dielectric matrix)
  average eigenvalue GAMMA=   0.7195
  2.4920  0.1998  0.1081  0.0782

  free energy =  -0.577407823435E+03  energy without entropy=  -0.577383134771E+03


--------------------------------------------------------------------------------------------------------




--------------------------------------- Iteration      9(   6)  ---------------------------------------


    POTLOK:  cpu time      0.0548: real time      0.0598
    SETDIJ:  cpu time      0.0088: real time      0.0089
    EDDIAG:  cpu time      0.4058: real time      0.4072
  RMM-DIIS:  cpu time      1.1571: real time      1.1611
    ORTHCH:  cpu time      0.0989: real time      0.0993
       DOS:  cpu time      0.0014: real time      0.0014
    CHARGE:  cpu time      0.1187: real time      0.1191
    MIXING:  cpu time      0.0020: real time      0.0020
    --------------------------------------------
      LOOP:  cpu time      1.8477: real time      1.8589

 eigenvalue-minimisations  :   687
 total energy-change (2. order) : 0.3352648E-03  (-0.2629566E-04)
 number of electron     518.9999649 magnetization 
 augmentation part      175.9401010 magnetization 

 eigenvalues of (default mixing * dielectric matrix)
  average eigenvalue GAMMA=   0.6234
  2.5304  0.2796  0.1547  0.0940  0.0582

  free energy =  -0.577407488170E+03  energy without entropy=  -0.577382589655E+03


--------------------------------------------------------------------------------------------------------




--------------------------------------- Iteration      9(   7)  ---------------------------------------


    POTLOK:  cpu time      0.0813: real time      0.0821
    SETDIJ:  cpu time      0.0102: real time      0.0102
    EDDIAG:  cpu time      0.4078: real time      0.4093
  RMM-DIIS:  cpu time      1.1170: real time      1.1210
    ORTHCH:  cpu time      0.0991: real time      0.0996
       DOS:  cpu time      0.0015: real time      0.0015
    CHARGE:  cpu time      0.1188: real time      0.1193
    MIXING:  cpu time      0.0020: real time      0.0020
    --------------------------------------------
      LOOP:  cpu time      1.8377: real time      1.8450

 eigenvalue-minimisations  :   680
 total energy-change (2. order) : 0.7872601E-04  (-0.1410820E-04)
 number of electron     518.9999649 magnetization 
 augmentation part      175.9531411 magnetization 

 eigenvalues of (default mixing * dielectric matrix)
  average eigenvalue GAMMA=   0.5707
  2.5478  0.4251  0.1819  0.1224  0.0911  0.0558

  free energy =  -0.577407409444E+03  energy without entropy=  -0.577382488419E+03


--------------------------------------------------------------------------------------------------------




--------------------------------------- Iteration      9(   8)  ---------------------------------------


    POTLOK:  cpu time      0.0695: real time      0.0703
    SETDIJ:  cpu time      0.0084: real time      0.0084
    EDDIAG:  cpu time      0.4825: real time      0.4849
  RMM-DIIS:  cpu time      0.9059: real time      0.9099
    ORTHCH:  cpu time      0.0969: real time      0.0973
       DOS:  cpu time      0.0014: real time      0.0014
    --------------------------------------------
      LOOP:  cpu time      1.5646: real time      1.5723

 eigenvalue-minimisations  :   499
 total energy-change (2. order) : 0.5995484E-05  (-0.5010177E-05)
 number of electron     518.9999649 magnetization 
 augmentation part      175.9531411 magnetization 

  free energy =  -0.577407403448E+03  energy without entropy=  -0.577382472479E+03


--------------------------------------------------------------------------------------------------------




------------------------ aborting loop because EDIFF is reached ----------------------------------------





 total charge

# of ion       s       p       d       tot
------------------------------------------
    1        0.610   0.534   6.500   7.643
    2        0.610   0.531   6.504   7.645
    3        0.608   0.536   6.498   7.643
    4        0.605   0.532   6.506   7.644
    5        0.610   0.534   6.500   7.644
    6        0.609   0.534   6.495   7.639
    7        0.605   0.532   6.508   7.645
    8        0.608   0.536   6.497   7.641
    9        0.608   0.533   6.505   7.646
   10        0.605   0.536   6.504   7.645
   11        0.607   0.536   6.502   7.645
   12        0.607   0.536   6.502   7.645
   13        0.604   0.540   6.497   7.641
   14        0.605   0.536   6.503   7.645
   15        0.609   0.535   6.498   7.642
   16        0.609   0.535   6.499   7.643
   17        0.632   0.774   6.570   7.976
   18        0.632   0.774   6.570   7.976
   19        0.630   0.774   6.568   7.972
   20        0.629   0.770   6.560   7.960
   21        0.630   0.771   6.571   7.972
   22        0.630   0.771   6.572   7.972
   23        0.630   0.774   6.568   7.972
   24        0.631   0.772   6.572   7.975
   25        0.631   0.774   6.568   7.974
   26        0.631   0.774   6.568   7.974
   27        0.629   0.774   6.564   7.967
   28        0.632   0.774   6.564   7.971
   29        0.631   0.774   6.568   7.974
   30        0.631   0.774   6.568   7.973
   31        0.630   0.776   6.564   7.969
   32        0.632   0.774   6.564   7.971
   33        0.642   0.806   6.594   8.041
   34        0.647   0.817   6.589   8.053
   35        0.642   0.805   6.594   8.041
   36        0.639   0.794   6.582   8.015
   37        0.642   0.806   6.594   8.041
   38        0.642   0.799   6.596   8.036
   39        0.639   0.794   6.582   8.015
   40        0.642   0.805   6.594   8.041
   41        0.644   0.805   6.589   8.037
   42        0.643   0.796   6.595   8.033
   43        0.643   0.802   6.597   8.042
   44        0.643   0.802   6.597   8.042
   45        0.633   0.790   6.568   7.992
   46        0.643   0.796   6.594   8.033
   47        0.645   0.807   6.591   8.043
   48        0.645   0.807   6.591   8.043
   49        0.625   0.570   6.540   7.735
   50        0.625   0.570   6.542   7.736
   51        0.623   0.552   6.546   7.720
   52        0.623   0.561   6.573   7.758
   53        0.629   0.571   6.543   7.742
   54        0.629   0.571   6.543   7.743
   55        0.623   0.551   6.545   7.720
   56        0.626   0.552   6.537   7.715
   57        0.622   0.550   6.547   7.719
   58        0.598   0.657   6.550   7.806
   59        0.617   0.556   6.545   7.718
   60        0.623   0.553   6.546   7.721
   61        0.598   0.657   6.551   7.806
   62        0.622   0.550   6.546   7.718
   63        0.625   0.553   6.571   7.749
   64        0.622   0.552   6.545   7.720
   65        1.218   2.628   0.000   3.846
   66        0.633   0.082   0.000   0.715
   67        0.635   0.082   0.000   0.718
--------------------------------------------------
tot         42.500  45.679 419.316 507.495
 
    CHARGE:  cpu time      0.1162: real time      0.1167
    FORLOC:  cpu time      0.0151: real time      0.0151
    FORNL :  cpu time      0.5050: real time      0.5072
    STRESS:  cpu time      1.5646: real time      1.5712
    FORCOR:  cpu time      0.0641: real time      0.0644
    FORHAR:  cpu time      0.0266: real time      0.0267
    MIXING:  cpu time      0.0017: real time      0.0017
    OFIELD:  cpu time      0.0000: real time      0.0000

  FORCE on cell =-STRESS in cart. coord.  units (eV):
  Direction    XX          YY          ZZ          XY          YZ          ZX
  --------------------------------------------------------------------------------------
  Alpha Z  1067.80299  1067.80299  1067.80299
  Ewald   80372.18348 80401.77747************    -0.79897     1.17143    -0.58798
  Hartree 87886.14702 87886.76190-86363.23968    -0.20444     0.54774    -0.13255
  E(xc)   -2442.55685 -2442.02677 -2432.92644    -0.00484     0.06160    -0.00504
  Local  ************************181896.28418     0.81793    -0.74885     0.56866
  n-local   693.98223   694.36255   587.50784     0.01143    -0.71684     0.01936
  augment  2920.13148  2918.35619  2845.51875    -0.00601    -0.24326     0.00512
  Kinetic  6147.16411  6125.94971  6053.97625     0.18346    -0.78185     0.17091
  Fock        0.00000     0.00000     0.00000     0.00000     0.00000     0.00000
  -------------------------------------------------------------------------------------
  Total     -63.03942   -66.23478   -53.75599    -0.00144    -0.71003     0.03847
  in kB     -56.20833   -59.05743   -47.93086    -0.00129    -0.63309     0.03430
  external pressure =      -54.40 kB  Pullay stress =        0.00 kB



--------------------------------------------------------------------------------------------------------



  FREE ENERGIE OF THE ION-ELECTRON SYSTEM (eV)
  ---------------------------------------------------
  free  energy   TOTEN  =      -577.40740345 eV

  energy  without entropy=     -577.38247248  energy(sigma->0) =     -577.39493796
 
 d Force =-0.2747212E-04[-0.743E-03, 0.688E-03]  d Energy =-0.1178309E-04-0.157E-04
 d Force = 0.7265596E-03[ 0.318E-01,-0.303E-01]  d Ewald  = 0.7270063E-03-0.447E-06


--------------------------------------------------------------------------------------------------------


    POTLOK:  cpu time      0.0658: real time      0.0661


--------------------------------------------------------------------------------------------------------


 Finite differences progress:
  Degree of freedom:   4/  9
  Displacement:        2/  2
  Total:               8/ 18
  LATTYP: Found a hexagonal cell.
 ALAT       =    10.9034004211
 C/A-ratio  =     1.6006841223
  
  Lattice vectors:
  
 A1 = (  10.9034004211,   0.0000000000,   0.0000000000)
 A2 = (  -5.4517002106,   9.4426217523,   0.0000000000)
 A3 = (   0.0000000000,   0.0000000000,  17.4528999329)


Analysis of symmetry for initial positions (statically):
=====================================================================
 Subroutine PRICEL returns:
 Original cell was already a primitive cell.
 

 Routine SETGRP: Setting up the symmetry group for a 
 hexagonal supercell.


 Subroutine GETGRP returns: Found  1 space group operations
 (whereof  1 operations were pure point group operations)
 out of a pool of 24 trial point group operations.


The static configuration has the point symmetry C_1 .


Analysis of symmetry for dynamics (positions and initial velocities):
=====================================================================
 Subroutine PRICEL returns:
 Original cell was already a primitive cell.
 

 Routine SETGRP: Setting up the symmetry group for a 
 hexagonal supercell.


 Subroutine GETGRP returns: Found  1 space group operations
 (whereof  1 operations were pure point group operations)
 out of a pool of 24 trial point group operations.


The dynamic configuration has the point symmetry C_1 .


Analysis of constrained symmetry for selective dynamics:
=====================================================================
 Subroutine PRICEL returns:
 Original cell was already a primitive cell.
 

 Routine SETGRP: Setting up the symmetry group for a 
 hexagonal supercell.


 Subroutine GETGRP returns: Found  1 space group operations
 (whereof  1 operations were pure point group operations)
 out of a pool of 24 trial point group operations.


The constrained configuration has the point symmetry C_1 .


 Subroutine INISYM returns: Found  1 space group operations
 (whereof  1 operations are pure point group operations),
 and found     1 'primitive' translations

 
 KPOINTS: Kpoints                                 

Automatic generation of k-mesh.
 Grid dimensions read from file:
 generate k-points for:    1    1    1

 Generating k-lattice:

  Cartesian coordinates                     Fractional coordinates (reciprocal lattice)
     0.091714508  0.052951396  0.000000000     1.000000000  0.000000000  0.000000000
     0.000000000  0.105902791  0.000000000     0.000000000  1.000000000  0.000000000
     0.000000000  0.000000000  0.057297068     0.000000000  0.000000000  1.000000000

  Length of vectors
     0.105902791  0.105902791  0.057297068

  Shift w.r.t. Gamma in fractional coordinates (k-lattice)
     0.000000000  0.000000000  0.000000000

 
 Subroutine IBZKPT returns following result:
 ===========================================
 
 Found      1 irreducible k-points:
 
 Following reciprocal coordinates:
            Coordinates               Weight
  0.000000  0.000000  0.000000      1.000000
 
 Following cartesian coordinates:
            Coordinates               Weight
  0.000000  0.000000  0.000000      1.000000
 
    WAVPRE:  cpu time      0.0645: real time      0.0698
    FEWALD:  cpu time      0.0018: real time      0.0018
    ORTHCH:  cpu time      0.3661: real time      3.9104
     LOOP+:  cpu time     19.0337: real time     24.7645


--------------------------------------- Ionic step       10  -------------------------------------------




--------------------------------------- Iteration     10(   1)  ---------------------------------------


    POTLOK:  cpu time      0.0538: real time      0.0545
    SETDIJ:  cpu time      0.0088: real time      0.0089
     EDDAV:  cpu time      2.4012: real time      3.5524
       DOS:  cpu time      0.0004: real time      0.0004
    CHARGE:  cpu time      0.1158: real time      0.1164
    MIXING:  cpu time      0.0077: real time      0.0078
    --------------------------------------------
      LOOP:  cpu time      2.5878: real time      3.7404

 eigenvalue-minimisations  :   640
 total energy-change (2. order) : 0.2576081E-02  (-0.1589226E-01)
 number of electron     518.9999649 magnetization 
 augmentation part      175.9532639 magnetization 

  free energy =  -0.577404833363E+03  energy without entropy=  -0.577379989569E+03


--------------------------------------------------------------------------------------------------------




--------------------------------------- Iteration     10(   2)  ---------------------------------------


    POTLOK:  cpu time      0.0757: real time      0.0765
    SETDIJ:  cpu time      0.0083: real time      0.0084
    EDDIAG:  cpu time      0.3976: real time      0.3995
  RMM-DIIS:  cpu time      1.1229: real time      1.1279
    ORTHCH:  cpu time      0.1342: real time      0.1348
       DOS:  cpu time      0.0014: real time      0.0014
    CHARGE:  cpu time      0.1397: real time      0.1402
    MIXING:  cpu time      0.0018: real time      0.0018
    --------------------------------------------
      LOOP:  cpu time      1.8817: real time      1.8904

 eigenvalue-minimisations  :   664
 total energy-change (2. order) :-0.6220609E-03  (-0.3305658E-03)
 number of electron     518.9999649 magnetization 
 augmentation part      175.8891528 magnetization 

 eigenvalues of (default mixing * dielectric matrix)
  average eigenvalue GAMMA=   0.1920
  0.1920

  free energy =  -0.577405455423E+03  energy without entropy=  -0.577380270472E+03


--------------------------------------------------------------------------------------------------------




--------------------------------------- Iteration     10(   3)  ---------------------------------------


    POTLOK:  cpu time      0.0588: real time      0.0594
    SETDIJ:  cpu time      0.0087: real time      0.0087
    EDDIAG:  cpu time      0.4052: real time      0.4067
  RMM-DIIS:  cpu time      1.0946: real time      1.0981
    ORTHCH:  cpu time      0.0991: real time      0.0994
       DOS:  cpu time      0.0015: real time      0.0015
    CHARGE:  cpu time      0.1161: real time      0.1164
    MIXING:  cpu time      0.0018: real time      0.0018
    --------------------------------------------
      LOOP:  cpu time      1.7857: real time      1.7921

 eigenvalue-minimisations  :   664
 total energy-change (2. order) : 0.2914304E-03  (-0.1364468E-03)
 number of electron     518.9999649 magnetization 
 augmentation part      175.9798529 magnetization 

 eigenvalues of (default mixing * dielectric matrix)
  average eigenvalue GAMMA=   0.6013
  1.1147  0.0880

  free energy =  -0.577405163993E+03  energy without entropy=  -0.577380802884E+03


--------------------------------------------------------------------------------------------------------




--------------------------------------- Iteration     10(   4)  ---------------------------------------


    POTLOK:  cpu time      0.0674: real time      0.0681
    SETDIJ:  cpu time      0.0086: real time      0.0087
    EDDIAG:  cpu time      0.4207: real time      0.4221
  RMM-DIIS:  cpu time      1.2029: real time      1.2065
    ORTHCH:  cpu time      0.1143: real time      0.1147
       DOS:  cpu time      0.0018: real time      0.0018
    CHARGE:  cpu time      0.1250: real time      0.1254
    MIXING:  cpu time      0.0020: real time      0.0020
    --------------------------------------------
      LOOP:  cpu time      1.9427: real time      1.9492

 eigenvalue-minimisations  :   700
 total energy-change (2. order) :-0.4410396E-03  (-0.1409138E-03)
 number of electron     518.9999649 magnetization 
 augmentation part      175.9207327 magnetization 

 eigenvalues of (default mixing * dielectric matrix)
  average eigenvalue GAMMA=   0.5191
  1.3377  0.1380  0.0817

  free energy =  -0.577405605033E+03  energy without entropy=  -0.577381089481E+03


--------------------------------------------------------------------------------------------------------




--------------------------------------- Iteration     10(   5)  ---------------------------------------


    POTLOK:  cpu time      0.0605: real time      0.0612
    SETDIJ:  cpu time      0.0102: real time      0.0102
    EDDIAG:  cpu time      0.4558: real time      0.4574
  RMM-DIIS:  cpu time      1.1275: real time      1.1329
    ORTHCH:  cpu time      0.1292: real time      0.1299
       DOS:  cpu time      0.0019: real time      0.0019
    CHARGE:  cpu time      0.1274: real time      0.1281
    MIXING:  cpu time      0.0019: real time      0.0019
    --------------------------------------------
      LOOP:  cpu time      1.9145: real time      1.9236

 eigenvalue-minimisations  :   664
 total energy-change (2. order) : 0.4491255E-03  (-0.5860455E-04)
 number of electron     518.9999649 magnetization 
 augmentation part      175.9712417 magnetization 

 eigenvalues of (default mixing * dielectric matrix)
  average eigenvalue GAMMA=   0.4568
  1.4393  0.2266  0.0943  0.0669

  free energy =  -0.577405155907E+03  energy without entropy=  -0.577380307590E+03


--------------------------------------------------------------------------------------------------------




--------------------------------------- Iteration     10(   6)  ---------------------------------------


    POTLOK:  cpu time      0.0593: real time      0.0634
    SETDIJ:  cpu time      0.0091: real time      0.0091
    EDDIAG:  cpu time      0.4400: real time      0.4424
  RMM-DIIS:  cpu time      1.1490: real time      1.1544
    ORTHCH:  cpu time      0.1256: real time      0.1262
       DOS:  cpu time      0.0019: real time      0.0019
    CHARGE:  cpu time      0.1239: real time      0.1245
    MIXING:  cpu time      0.0021: real time      0.0021
    --------------------------------------------
      LOOP:  cpu time      1.9108: real time      1.9239

 eigenvalue-minimisations  :   683
 total energy-change (2. order) : 0.3961101E-03  (-0.3695273E-04)
 number of electron     518.9999649 magnetization 
 augmentation part      175.9394920 magnetization 

 eigenvalues of (default mixing * dielectric matrix)
  average eigenvalue GAMMA=   0.4664
  1.5718  0.4769  0.1417  0.0871  0.0543

  free energy =  -0.577404759797E+03  energy without entropy=  -0.577379852609E+03


--------------------------------------------------------------------------------------------------------




--------------------------------------- Iteration     10(   7)  ---------------------------------------


    POTLOK:  cpu time      0.0576: real time      0.0627
    SETDIJ:  cpu time      0.0090: real time      0.0090
    EDDIAG:  cpu time      0.4383: real time      0.4405
  RMM-DIIS:  cpu time      1.1862: real time      1.1915
    ORTHCH:  cpu time      0.1014: real time      0.1018
       DOS:  cpu time      0.0016: real time      0.0016
    CHARGE:  cpu time      0.1170: real time      0.1175
    MIXING:  cpu time      0.0020: real time      0.0020
    --------------------------------------------
      LOOP:  cpu time      1.9131: real time      1.9266

 eigenvalue-minimisations  :   684
 total energy-change (2. order) : 0.1084974E-03  (-0.2898307E-04)
 number of electron     518.9999649 magnetization 
 augmentation part      175.9488240 magnetization 

 eigenvalues of (default mixing * dielectric matrix)
  average eigenvalue GAMMA=   0.5561
  1.9124  0.9269  0.2321  0.1258  0.0865  0.0532

  free energy =  -0.577404651300E+03  energy without entropy=  -0.577379768215E+03


--------------------------------------------------------------------------------------------------------




--------------------------------------- Iteration     10(   8)  ---------------------------------------


    POTLOK:  cpu time      0.0691: real time      0.0699
    SETDIJ:  cpu time      0.0097: real time      0.0097
    EDDIAG:  cpu time      0.4036: real time      0.4051
  RMM-DIIS:  cpu time      1.1252: real time      1.1294
    ORTHCH:  cpu time      0.1137: real time      0.1141
       DOS:  cpu time      0.0015: real time      0.0015
    CHARGE:  cpu time      0.1162: real time      0.1166
    MIXING:  cpu time      0.0021: real time      0.0021
    --------------------------------------------
      LOOP:  cpu time      1.8411: real time      1.8484

 eigenvalue-minimisations  :   708
 total energy-change (2. order) :-0.5843992E-04  (-0.2499308E-04)
 number of electron     518.9999649 magnetization 
 augmentation part      175.9475011 magnetization 

 eigenvalues of (default mixing * dielectric matrix)
  average eigenvalue GAMMA=   0.5614
  2.2010  1.0549  0.2752  0.1488  0.1107  0.0864  0.0531

  free energy =  -0.577404709740E+03  energy without entropy=  -0.577379869953E+03


--------------------------------------------------------------------------------------------------------




--------------------------------------- Iteration     10(   9)  ---------------------------------------


    POTLOK:  cpu time      0.0571: real time      0.0576
    SETDIJ:  cpu time      0.0087: real time      0.0087
    EDDIAG:  cpu time      0.4187: real time      0.4202
  RMM-DIIS:  cpu time      1.0432: real time      1.0466
    ORTHCH:  cpu time      0.0982: real time      0.0986
       DOS:  cpu time      0.0015: real time      0.0015
    CHARGE:  cpu time      0.1148: real time      0.1151
    MIXING:  cpu time      0.0022: real time      0.0022
    --------------------------------------------
      LOOP:  cpu time      1.7445: real time      1.7505

 eigenvalue-minimisations  :   618
 total energy-change (2. order) : 0.6560825E-04  (-0.9869503E-05)
 number of electron     518.9999649 magnetization 
 augmentation part      175.9375157 magnetization 

 eigenvalues of (default mixing * dielectric matrix)
  average eigenvalue GAMMA=   0.5368
  2.3243  1.0640  0.3027  0.2285  0.1334  0.0531  0.0863  0.1019

  free energy =  -0.577404644131E+03  energy without entropy=  -0.577379640030E+03


--------------------------------------------------------------------------------------------------------




--------------------------------------- Iteration     10(  10)  ---------------------------------------


    POTLOK:  cpu time      0.0687: real time      0.0696
    SETDIJ:  cpu time      0.0087: real time      0.0088
    EDDIAG:  cpu time      0.4054: real time      0.4067
  RMM-DIIS:  cpu time      0.8769: real time      0.8802
    ORTHCH:  cpu time      0.1047: real time      0.1052
       DOS:  cpu time      0.0016: real time      0.0016
    CHARGE:  cpu time      0.1205: real time      0.1210
    MIXING:  cpu time      0.0022: real time      0.0022
    --------------------------------------------
      LOOP:  cpu time      1.5887: real time      1.5953

 eigenvalue-minimisations  :   498
 total energy-change (2. order) : 0.2595555E-04  (-0.4713446E-05)
 number of electron     518.9999649 magnetization 
 augmentation part      175.9464732 magnetization 

 eigenvalues of (default mixing * dielectric matrix)
  average eigenvalue GAMMA=   0.5098
  2.3627  1.0195  0.4230  0.2770  0.1561  0.1230  0.0531  0.0868  0.0868

  free energy =  -0.577404618176E+03  energy without entropy=  -0.577379710256E+03


--------------------------------------------------------------------------------------------------------




--------------------------------------- Iteration     10(  11)  ---------------------------------------


    POTLOK:  cpu time      0.0678: real time      0.0686
    SETDIJ:  cpu time      0.0087: real time      0.0087
    EDDIAG:  cpu time      0.4205: real time      0.4226
  RMM-DIIS:  cpu time      0.6861: real time      0.6891
    ORTHCH:  cpu time      0.1265: real time      0.1272
       DOS:  cpu time      0.0016: real time      0.0017
    CHARGE:  cpu time      0.1221: real time      0.1227
    MIXING:  cpu time      0.0023: real time      0.0023
    --------------------------------------------
      LOOP:  cpu time      1.4356: real time      1.4430

 eigenvalue-minimisations  :   354
 total energy-change (2. order) : 0.1055625E-04  (-0.2210220E-05)
 number of electron     518.9999649 magnetization 
 augmentation part      175.9434970 magnetization 

 eigenvalues of (default mixing * dielectric matrix)
  average eigenvalue GAMMA=   0.4970
  2.3884  0.8115  0.8115  0.2949  0.1969  0.1367  0.0531  0.1108  0.0863  0.0796

  free energy =  -0.577404607619E+03  energy without entropy=  -0.577379675902E+03


--------------------------------------------------------------------------------------------------------




--------------------------------------- Iteration     10(  12)  ---------------------------------------


    POTLOK:  cpu time      0.0830: real time      0.0840
    SETDIJ:  cpu time      0.0088: real time      0.0089
    EDDIAG:  cpu time      0.4674: real time      0.4698
  RMM-DIIS:  cpu time      0.6541: real time      0.6573
    ORTHCH:  cpu time      0.1033: real time      0.1039
       DOS:  cpu time      0.0018: real time      0.0018
    --------------------------------------------
      LOOP:  cpu time      1.3184: real time      1.3258

 eigenvalue-minimisations  :   338
 total energy-change (2. order) : 0.5176902E-05  (-0.1230754E-05)
 number of electron     518.9999649 magnetization 
 augmentation part      175.9434970 magnetization 

  free energy =  -0.577404602443E+03  energy without entropy=  -0.577379670031E+03


--------------------------------------------------------------------------------------------------------




------------------------ aborting loop because EDIFF is reached ----------------------------------------





 total charge

# of ion       s       p       d       tot
------------------------------------------
    1        0.610   0.534   6.501   7.644
    2        0.610   0.531   6.505   7.646
    3        0.608   0.536   6.499   7.643
    4        0.605   0.532   6.507   7.645
    5        0.610   0.534   6.501   7.645
    6        0.609   0.534   6.495   7.639
    7        0.605   0.532   6.507   7.645
    8        0.608   0.536   6.499   7.643
    9        0.608   0.533   6.504   7.645
   10        0.605   0.536   6.501   7.643
   11        0.607   0.536   6.501   7.644
   12        0.607   0.536   6.501   7.644
   13        0.604   0.540   6.497   7.641
   14        0.605   0.536   6.503   7.644
   15        0.609   0.535   6.499   7.643
   16        0.609   0.535   6.499   7.643
   17        0.632   0.774   6.569   7.975
   18        0.632   0.774   6.570   7.976
   19        0.630   0.774   6.567   7.972
   20        0.629   0.770   6.560   7.959
   21        0.630   0.771   6.571   7.972
   22        0.630   0.771   6.571   7.972
   23        0.630   0.774   6.568   7.972
   24        0.631   0.772   6.572   7.975
   25        0.631   0.774   6.567   7.973
   26        0.631   0.774   6.567   7.973
   27        0.629   0.774   6.564   7.966
   28        0.632   0.774   6.564   7.970
   29        0.631   0.774   6.567   7.973
   30        0.631   0.774   6.568   7.973
   31        0.630   0.776   6.564   7.969
   32        0.632   0.774   6.564   7.970
   33        0.642   0.806   6.593   8.041
   34        0.647   0.817   6.589   8.053
   35        0.642   0.805   6.594   8.041
   36        0.639   0.794   6.582   8.015
   37        0.642   0.806   6.594   8.041
   38        0.642   0.799   6.596   8.036
   39        0.639   0.794   6.581   8.015
   40        0.642   0.805   6.594   8.041
   41        0.644   0.804   6.588   8.037
   42        0.643   0.796   6.594   8.033
   43        0.643   0.802   6.597   8.042
   44        0.643   0.802   6.597   8.042
   45        0.633   0.790   6.568   7.991
   46        0.643   0.796   6.594   8.033
   47        0.645   0.807   6.591   8.043
   48        0.645   0.807   6.591   8.043
   49        0.625   0.570   6.543   7.737
   50        0.625   0.570   6.543   7.737
   51        0.623   0.551   6.545   7.720
   52        0.623   0.562   6.574   7.758
   53        0.629   0.571   6.545   7.744
   54        0.629   0.571   6.545   7.744
   55        0.623   0.551   6.545   7.720
   56        0.626   0.552   6.538   7.716
   57        0.622   0.550   6.547   7.718
   58        0.598   0.657   6.551   7.807
   59        0.617   0.556   6.545   7.718
   60        0.622   0.552   6.547   7.722
   61        0.598   0.657   6.550   7.805
   62        0.622   0.550   6.547   7.719
   63        0.625   0.553   6.573   7.751
   64        0.623   0.552   6.547   7.722
   65        1.217   2.620   0.000   3.837
   66        0.621   0.077   0.000   0.698
   67        0.635   0.082   0.000   0.717
--------------------------------------------------
tot         42.485  45.663 419.326 507.474
 
    CHARGE:  cpu time      0.1254: real time      0.1260
    FORLOC:  cpu time      0.0154: real time      0.0155
    FORNL :  cpu time      0.5264: real time      0.5292
    STRESS:  cpu time      1.5646: real time      1.5716
    FORCOR:  cpu time      0.0628: real time      0.0631
    FORHAR:  cpu time      0.0255: real time      0.0256
    MIXING:  cpu time      0.0021: real time      0.0021
    OFIELD:  cpu time      0.0000: real time      0.0000

  FORCE on cell =-STRESS in cart. coord.  units (eV):
  Direction    XX          YY          ZZ          XY          YZ          ZX
  --------------------------------------------------------------------------------------
  Alpha Z  1067.80299  1067.80299  1067.80299
  Ewald   80372.12809 80401.78459************     0.08328     0.56125    -0.02711
  Hartree 87885.79532 87886.76737-86363.62067     0.02074     0.51965     0.01281
  E(xc)   -2442.52741 -2441.98987 -2432.84103    -0.00048     0.06435    -0.00005
  Local  ************************181898.01546    -0.09968    -0.33903     0.00816
  n-local   694.00739   694.44487   587.41082     0.00265    -0.69587     0.00145
  augment  2920.27712  2918.49233  2845.49522     0.00167    -0.25143    -0.00232
  Kinetic  6147.18800  6125.79092  6053.68599    -0.01129    -0.80140     0.00703
  Fock        0.00000     0.00000     0.00000     0.00000     0.00000     0.00000
  -------------------------------------------------------------------------------------
  Total     -62.94570   -66.43554   -53.58821    -0.00312    -0.94249    -0.00005
  in kB     -56.12476   -59.23643   -47.78127    -0.00278    -0.84036    -0.00004
  external pressure =      -54.38 kB  Pullay stress =        0.00 kB



--------------------------------------------------------------------------------------------------------



  FREE ENERGIE OF THE ION-ELECTRON SYSTEM (eV)
  ---------------------------------------------------
  free  energy   TOTEN  =      -577.40460244 eV

  energy  without entropy=     -577.37967003  energy(sigma->0) =     -577.39213624
 
 d Force =-0.2793077E-02[-0.607E-02, 0.486E-03]  d Energy =-0.2801006E-02 0.793E-05
 d Force = 0.9052348E+00[ 0.905E+00, 0.905E+00]  d Ewald  = 0.9053557E+00-0.121E-03


--------------------------------------------------------------------------------------------------------


    POTLOK:  cpu time      0.0649: real time      0.0652


--------------------------------------------------------------------------------------------------------


 Finite differences progress:
  Degree of freedom:   5/  9
  Displacement:        1/  2
  Total:               9/ 18
  LATTYP: Found a hexagonal cell.
 ALAT       =    10.9034004211
 C/A-ratio  =     1.6006841223
  
  Lattice vectors:
  
 A1 = (  10.9034004211,   0.0000000000,   0.0000000000)
 A2 = (  -5.4517002106,   9.4426217523,   0.0000000000)
 A3 = (   0.0000000000,   0.0000000000,  17.4528999329)


Analysis of symmetry for initial positions (statically):
=====================================================================
 Subroutine PRICEL returns:
 Original cell was already a primitive cell.
 

 Routine SETGRP: Setting up the symmetry group for a 
 hexagonal supercell.


 Subroutine GETGRP returns: Found  1 space group operations
 (whereof  1 operations were pure point group operations)
 out of a pool of 24 trial point group operations.


The static configuration has the point symmetry C_1 .


Analysis of symmetry for dynamics (positions and initial velocities):
=====================================================================
 Subroutine PRICEL returns:
 Original cell was already a primitive cell.
 

 Routine SETGRP: Setting up the symmetry group for a 
 hexagonal supercell.


 Subroutine GETGRP returns: Found  1 space group operations
 (whereof  1 operations were pure point group operations)
 out of a pool of 24 trial point group operations.


The dynamic configuration has the point symmetry C_1 .


Analysis of constrained symmetry for selective dynamics:
=====================================================================
 Subroutine PRICEL returns:
 Original cell was already a primitive cell.
 

 Routine SETGRP: Setting up the symmetry group for a 
 hexagonal supercell.


 Subroutine GETGRP returns: Found  1 space group operations
 (whereof  1 operations were pure point group operations)
 out of a pool of 24 trial point group operations.


The constrained configuration has the point symmetry C_1 .


 Subroutine INISYM returns: Found  1 space group operations
 (whereof  1 operations are pure point group operations),
 and found     1 'primitive' translations

 
 KPOINTS: Kpoints                                 

Automatic generation of k-mesh.
 Grid dimensions read from file:
 generate k-points for:    1    1    1

 Generating k-lattice:

  Cartesian coordinates                     Fractional coordinates (reciprocal lattice)
     0.091714508  0.052951396  0.000000000     1.000000000  0.000000000  0.000000000
     0.000000000  0.105902791  0.000000000     0.000000000  1.000000000  0.000000000
     0.000000000  0.000000000  0.057297068     0.000000000  0.000000000  1.000000000

  Length of vectors
     0.105902791  0.105902791  0.057297068

  Shift w.r.t. Gamma in fractional coordinates (k-lattice)
     0.000000000  0.000000000  0.000000000

 
 Subroutine IBZKPT returns following result:
 ===========================================
 
 Found      1 irreducible k-points:
 
 Following reciprocal coordinates:
            Coordinates               Weight
  0.000000  0.000000  0.000000      1.000000
 
 Following cartesian coordinates:
            Coordinates               Weight
  0.000000  0.000000  0.000000      1.000000
 
    WAVPRE:  cpu time      0.0547: real time      0.0774
    FEWALD:  cpu time      0.0017: real time      0.0017
    ORTHCH:  cpu time      0.3762: real time      3.7073
     LOOP+:  cpu time     24.7212: real time     29.3333


--------------------------------------- Ionic step       11  -------------------------------------------




--------------------------------------- Iteration     11(   1)  ---------------------------------------


    POTLOK:  cpu time      0.0618: real time      0.0626
    SETDIJ:  cpu time      0.0085: real time      0.0086
     EDDAV:  cpu time      2.6161: real time      3.7564
       DOS:  cpu time      0.0005: real time      0.0004
    CHARGE:  cpu time      0.1238: real time      0.1244
    MIXING:  cpu time      0.0019: real time      0.0019
    --------------------------------------------
      LOOP:  cpu time      2.8125: real time      3.9543

 eigenvalue-minimisations  :   640
 total energy-change (2. order) :-0.9988512E-03  (-0.3509963E-01)
 number of electron     518.9999648 magnetization 
 augmentation part      175.9417747 magnetization 

  free energy =  -0.577405606471E+03  energy without entropy=  -0.577380654879E+03


--------------------------------------------------------------------------------------------------------




--------------------------------------- Iteration     11(   2)  ---------------------------------------


    POTLOK:  cpu time      0.0712: real time      0.0721
    SETDIJ:  cpu time      0.0185: real time      0.0187
    EDDIAG:  cpu time      0.4428: real time      0.4447
  RMM-DIIS:  cpu time      1.1244: real time      1.1286
    ORTHCH:  cpu time      0.1063: real time      0.1067
       DOS:  cpu time      0.0016: real time      0.0016
    CHARGE:  cpu time      0.1263: real time      0.1268
    MIXING:  cpu time      0.0018: real time      0.0018
    --------------------------------------------
      LOOP:  cpu time      1.8930: real time      1.9011

 eigenvalue-minimisations  :   655
 total energy-change (2. order) : 0.1136476E-02  (-0.8169278E-03)
 number of electron     518.9999648 magnetization 
 augmentation part      175.9990807 magnetization 

 eigenvalues of (default mixing * dielectric matrix)
  average eigenvalue GAMMA=   0.5293
  0.5293

  free energy =  -0.577404469994E+03  energy without entropy=  -0.577380017738E+03


--------------------------------------------------------------------------------------------------------




--------------------------------------- Iteration     11(   3)  ---------------------------------------


    POTLOK:  cpu time      0.0657: real time      0.0666
    SETDIJ:  cpu time      0.0085: real time      0.0085
    EDDIAG:  cpu time      0.6643: real time      0.6672
  RMM-DIIS:  cpu time      1.1344: real time      1.1388
    ORTHCH:  cpu time      0.1037: real time      0.1041
       DOS:  cpu time      0.0015: real time      0.0015
    CHARGE:  cpu time      0.1164: real time      0.1168
    MIXING:  cpu time      0.0019: real time      0.0019
    --------------------------------------------
      LOOP:  cpu time      2.0964: real time      2.1056

 eigenvalue-minimisations  :   693
 total energy-change (2. order) :-0.6458476E-02  (-0.5930729E-03)
 number of electron     518.9999648 magnetization 
 augmentation part      175.8017274 magnetization 

 eigenvalues of (default mixing * dielectric matrix)
  average eigenvalue GAMMA=   0.6802
  1.2870  0.0733

  free energy =  -0.577410928470E+03  energy without entropy=  -0.577387876105E+03


--------------------------------------------------------------------------------------------------------




--------------------------------------- Iteration     11(   4)  ---------------------------------------


    POTLOK:  cpu time      0.0584: real time      0.0592
    SETDIJ:  cpu time      0.0084: real time      0.0084
    EDDIAG:  cpu time      0.4070: real time      0.4088
  RMM-DIIS:  cpu time      1.0995: real time      1.1051
    ORTHCH:  cpu time      0.1045: real time      0.1051
       DOS:  cpu time      0.0016: real time      0.0016
    CHARGE:  cpu time      0.1192: real time      0.1198
    MIXING:  cpu time      0.0019: real time      0.0019
    --------------------------------------------
      LOOP:  cpu time      1.8003: real time      1.8098

 eigenvalue-minimisations  :   676
 total energy-change (2. order) : 0.3076697E-02  (-0.3332645E-03)
 number of electron     518.9999648 magnetization 
 augmentation part      175.9331050 magnetization 

 eigenvalues of (default mixing * dielectric matrix)
  average eigenvalue GAMMA=   0.5214
  1.3750  0.1304  0.0590

  free energy =  -0.577407851773E+03  energy without entropy=  -0.577382724242E+03


--------------------------------------------------------------------------------------------------------




--------------------------------------- Iteration     11(   5)  ---------------------------------------


    POTLOK:  cpu time      0.0724: real time      0.0734
    SETDIJ:  cpu time      0.0090: real time      0.0091
    EDDIAG:  cpu time      0.5147: real time      0.5174
  RMM-DIIS:  cpu time      1.2254: real time      1.2313
    ORTHCH:  cpu time      0.1462: real time      0.1470
       DOS:  cpu time      0.0015: real time      0.0015
    CHARGE:  cpu time      0.1283: real time      0.1290
    MIXING:  cpu time      0.0021: real time      0.0021
    --------------------------------------------
      LOOP:  cpu time      2.0996: real time      2.1108

 eigenvalue-minimisations  :   668
 total energy-change (2. order) : 0.3427479E-02  (-0.1523456E-03)
 number of electron     518.9999648 magnetization 
 augmentation part      175.9476859 magnetization 

 eigenvalues of (default mixing * dielectric matrix)
  average eigenvalue GAMMA=   0.4903
  1.3682  0.4337  0.1029  0.0566

  free energy =  -0.577404424294E+03  energy without entropy=  -0.577379575609E+03


--------------------------------------------------------------------------------------------------------




--------------------------------------- Iteration     11(   6)  ---------------------------------------


    POTLOK:  cpu time      0.0773: real time      0.0782
    SETDIJ:  cpu time      0.0087: real time      0.0087
    EDDIAG:  cpu time      0.4404: real time      0.4427
  RMM-DIIS:  cpu time      1.1419: real time      1.1473
    ORTHCH:  cpu time      0.1219: real time      0.1224
       DOS:  cpu time      0.0017: real time      0.0017
    CHARGE:  cpu time      0.1264: real time      0.1269
    MIXING:  cpu time      0.0022: real time      0.0022
    --------------------------------------------
      LOOP:  cpu time      1.9205: real time      1.9301

 eigenvalue-minimisations  :   693
 total energy-change (2. order) : 0.1048923E-03  (-0.9196051E-04)
 number of electron     518.9999648 magnetization 
 augmentation part      175.9347035 magnetization 

 eigenvalues of (default mixing * dielectric matrix)
  average eigenvalue GAMMA=   0.5726
  1.2781  1.2781  0.1540  0.0962  0.0565

  free energy =  -0.577404319402E+03  energy without entropy=  -0.577379218137E+03


--------------------------------------------------------------------------------------------------------




--------------------------------------- Iteration     11(   7)  ---------------------------------------


    POTLOK:  cpu time      0.0614: real time      0.0619
    SETDIJ:  cpu time      0.0095: real time      0.0095
    EDDIAG:  cpu time      0.4612: real time      0.4631
  RMM-DIIS:  cpu time      1.1457: real time      1.1501
    ORTHCH:  cpu time      0.1082: real time      0.1087
       DOS:  cpu time      0.0015: real time      0.0015
    CHARGE:  cpu time      0.1260: real time      0.1264
    MIXING:  cpu time      0.0022: real time      0.0022
    --------------------------------------------
      LOOP:  cpu time      1.9158: real time      1.9235

 eigenvalue-minimisations  :   693
 total energy-change (2. order) : 0.6013099E-05  (-0.7124672E-04)
 number of electron     518.9999648 magnetization 
 augmentation part      175.9651023 magnetization 

 eigenvalues of (default mixing * dielectric matrix)
  average eigenvalue GAMMA=   0.6185
  1.7940  1.3787  0.2498  0.0564  0.1356  0.0965

  free energy =  -0.577404313389E+03  energy without entropy=  -0.577379789623E+03


--------------------------------------------------------------------------------------------------------




--------------------------------------- Iteration     11(   8)  ---------------------------------------


    POTLOK:  cpu time      0.0604: real time      0.0610
    SETDIJ:  cpu time      0.0086: real time      0.0086
    EDDIAG:  cpu time      0.4351: real time      0.4373
  RMM-DIIS:  cpu time      1.2158: real time      1.2203
    ORTHCH:  cpu time      0.1140: real time      0.1145
       DOS:  cpu time      0.0016: real time      0.0016
    CHARGE:  cpu time      0.1261: real time      0.1266
    MIXING:  cpu time      0.0023: real time      0.0023
    --------------------------------------------
      LOOP:  cpu time      1.9639: real time      1.9723

 eigenvalue-minimisations  :   705
 total energy-change (2. order) :-0.4585683E-04  (-0.5685694E-04)
 number of electron     518.9999648 magnetization 
 augmentation part      175.9483376 magnetization 

 eigenvalues of (default mixing * dielectric matrix)
  average eigenvalue GAMMA=   0.5951
  2.1419  1.2196  0.3737  0.1708  0.0564  0.1094  0.0941

  free energy =  -0.577404359246E+03  energy without entropy=  -0.577379253657E+03


--------------------------------------------------------------------------------------------------------




--------------------------------------- Iteration     11(   9)  ---------------------------------------


    POTLOK:  cpu time      0.0560: real time      0.0611
    SETDIJ:  cpu time      0.0086: real time      0.0086
    EDDIAG:  cpu time      0.4506: real time      0.4526
  RMM-DIIS:  cpu time      1.1644: real time      1.1707
    ORTHCH:  cpu time      0.1188: real time      0.1194
       DOS:  cpu time      0.0016: real time      0.0016
    CHARGE:  cpu time      0.1192: real time      0.1198
    MIXING:  cpu time      0.0022: real time      0.0022
    --------------------------------------------
      LOOP:  cpu time      1.9214: real time      1.9361

 eigenvalue-minimisations  :   672
 total energy-change (2. order) : 0.9555264E-04  (-0.2939238E-04)
 number of electron     518.9999648 magnetization 
 augmentation part      175.9530899 magnetization 

 eigenvalues of (default mixing * dielectric matrix)
  average eigenvalue GAMMA=   0.5566
  2.2671  1.0627  0.5266  0.2127  0.1418  0.0564  0.0972  0.0887

  free energy =  -0.577404263693E+03  energy without entropy=  -0.577379531804E+03


--------------------------------------------------------------------------------------------------------




--------------------------------------- Iteration     11(  10)  ---------------------------------------


    POTLOK:  cpu time      0.0595: real time      0.0606
    SETDIJ:  cpu time      0.0090: real time      0.0091
    EDDIAG:  cpu time      0.4131: real time      0.4152
  RMM-DIIS:  cpu time      1.0643: real time      1.0696
    ORTHCH:  cpu time      0.1030: real time      0.1035
       DOS:  cpu time      0.0015: real time      0.0015
    CHARGE:  cpu time      0.1191: real time      0.1196
    MIXING:  cpu time      0.0022: real time      0.0022
    --------------------------------------------
      LOOP:  cpu time      1.7718: real time      1.7813

 eigenvalue-minimisations  :   641
 total energy-change (2. order) : 0.7853787E-04  (-0.1432173E-04)
 number of electron     518.9999648 magnetization 
 augmentation part      175.9479635 magnetization 

 eigenvalues of (default mixing * dielectric matrix)
  average eigenvalue GAMMA=   0.5352
  2.3226  0.8491  0.8491  0.2725  0.1687  0.0564  0.1219  0.0957  0.0803

  free energy =  -0.577404185155E+03  energy without entropy=  -0.577379333659E+03


--------------------------------------------------------------------------------------------------------




--------------------------------------- Iteration     11(  11)  ---------------------------------------


    POTLOK:  cpu time      0.0695: real time      0.0703
    SETDIJ:  cpu time      0.0086: real time      0.0086
    EDDIAG:  cpu time      0.4187: real time      0.4207
  RMM-DIIS:  cpu time      0.9284: real time      0.9326
    ORTHCH:  cpu time      0.1149: real time      0.1154
       DOS:  cpu time      0.0016: real time      0.0016
    CHARGE:  cpu time      0.1256: real time      0.1262
    MIXING:  cpu time      0.0025: real time      0.0025
    --------------------------------------------
      LOOP:  cpu time      1.6697: real time      1.6778

 eigenvalue-minimisations  :   558
 total energy-change (2. order) : 0.5083230E-04  (-0.7473432E-05)
 number of electron     518.9999648 magnetization 
 augmentation part      175.9465679 magnetization 

 eigenvalues of (default mixing * dielectric matrix)
  average eigenvalue GAMMA=   0.5272
  2.3356  0.9510  0.9510  0.3299  0.2137  0.1499  0.0564  0.1148  0.0952  0.0746

  free energy =  -0.577404134323E+03  energy without entropy=  -0.577379155717E+03


--------------------------------------------------------------------------------------------------------




--------------------------------------- Iteration     11(  12)  ---------------------------------------


    POTLOK:  cpu time      0.0595: real time      0.0602
    SETDIJ:  cpu time      0.0084: real time      0.0084
    EDDIAG:  cpu time      0.4337: real time      0.4358
  RMM-DIIS:  cpu time      0.8655: real time      0.8685
    ORTHCH:  cpu time      0.1342: real time      0.1347
       DOS:  cpu time      0.0016: real time      0.0016
    CHARGE:  cpu time      0.1237: real time      0.1242
    MIXING:  cpu time      0.0027: real time      0.0027
    --------------------------------------------
      LOOP:  cpu time      1.6292: real time      1.6361

 eigenvalue-minimisations  :   428
 total energy-change (2. order) : 0.2321420E-04  (-0.4307589E-05)
 number of electron     518.9999648 magnetization 
 augmentation part      175.9465146 magnetization 

 eigenvalues of (default mixing * dielectric matrix)
  average eigenvalue GAMMA=   0.5181
  2.3391  1.0333  1.0333  0.3973  0.2562  0.1689  0.0564  0.1399  0.0951  0.1068
  0.0731

  free energy =  -0.577404111109E+03  energy without entropy=  -0.577379200868E+03


--------------------------------------------------------------------------------------------------------




--------------------------------------- Iteration     11(  13)  ---------------------------------------


    POTLOK:  cpu time      0.0584: real time      0.0592
    SETDIJ:  cpu time      0.0089: real time      0.0089
    EDDIAG:  cpu time      0.4465: real time      0.4483
  RMM-DIIS:  cpu time      0.6214: real time      0.6237
    ORTHCH:  cpu time      0.1260: real time      0.1265
       DOS:  cpu time      0.0015: real time      0.0015
    CHARGE:  cpu time      0.1156: real time      0.1160
    MIXING:  cpu time      0.0027: real time      0.0027
    --------------------------------------------
      LOOP:  cpu time      1.3810: real time      1.3868

 eigenvalue-minimisations  :   352
 total energy-change (2. order) : 0.1019314E-04  (-0.1617170E-05)
 number of electron     518.9999648 magnetization 
 augmentation part      175.9484166 magnetization 

 eigenvalues of (default mixing * dielectric matrix)
  average eigenvalue GAMMA=   0.5165
  2.3404  1.1259  1.1259  0.4592  0.3152  0.2162  0.1615  0.0564  0.1268  0.1034
  0.0945  0.0724

  free energy =  -0.577404100916E+03  energy without entropy=  -0.577379177881E+03


--------------------------------------------------------------------------------------------------------




--------------------------------------- Iteration     11(  14)  ---------------------------------------


    POTLOK:  cpu time      0.0694: real time      0.0700
    SETDIJ:  cpu time      0.0084: real time      0.0084
    EDDIAG:  cpu time      0.4048: real time      0.4065
  RMM-DIIS:  cpu time      0.5950: real time      0.5974
    ORTHCH:  cpu time      0.1002: real time      0.1006
       DOS:  cpu time      0.0015: real time      0.0015
    --------------------------------------------
      LOOP:  cpu time      1.1793: real time      1.1844

 eigenvalue-minimisations  :   335
 total energy-change (2. order) : 0.2646972E-05  (-0.5922939E-06)
 number of electron     518.9999648 magnetization 
 augmentation part      175.9484166 magnetization 

  free energy =  -0.577404098269E+03  energy without entropy=  -0.577379193412E+03


--------------------------------------------------------------------------------------------------------




------------------------ aborting loop because EDIFF is reached ----------------------------------------





 total charge

# of ion       s       p       d       tot
------------------------------------------
    1        0.610   0.534   6.500   7.643
    2        0.610   0.531   6.506   7.647
    3        0.608   0.536   6.499   7.643
    4        0.605   0.532   6.507   7.645
    5        0.610   0.534   6.499   7.643
    6        0.610   0.534   6.497   7.641
    7        0.605   0.532   6.507   7.645
    8        0.608   0.536   6.498   7.643
    9        0.608   0.533   6.505   7.645
   10        0.605   0.536   6.504   7.646
   11        0.607   0.536   6.502   7.644
   12        0.607   0.536   6.502   7.645
   13        0.604   0.540   6.496   7.640
   14        0.605   0.536   6.503   7.644
   15        0.609   0.535   6.499   7.643
   16        0.609   0.535   6.499   7.643
   17        0.632   0.774   6.570   7.976
   18        0.632   0.774   6.570   7.976
   19        0.630   0.774   6.567   7.972
   20        0.629   0.770   6.560   7.959
   21        0.630   0.771   6.571   7.972
   22        0.630   0.771   6.571   7.972
   23        0.630   0.774   6.567   7.972
   24        0.631   0.772   6.572   7.975
   25        0.631   0.774   6.568   7.973
   26        0.631   0.774   6.567   7.973
   27        0.629   0.774   6.564   7.966
   28        0.632   0.774   6.564   7.970
   29        0.631   0.774   6.567   7.973
   30        0.631   0.774   6.568   7.973
   31        0.630   0.776   6.563   7.969
   32        0.632   0.774   6.564   7.970
   33        0.642   0.806   6.594   8.041
   34        0.647   0.817   6.589   8.053
   35        0.642   0.805   6.594   8.041
   36        0.639   0.794   6.582   8.015
   37        0.642   0.806   6.594   8.041
   38        0.642   0.799   6.596   8.036
   39        0.639   0.794   6.581   8.015
   40        0.642   0.805   6.594   8.041
   41        0.644   0.804   6.589   8.037
   42        0.643   0.796   6.594   8.033
   43        0.643   0.802   6.597   8.042
   44        0.643   0.802   6.597   8.042
   45        0.633   0.790   6.568   7.991
   46        0.643   0.796   6.594   8.032
   47        0.645   0.807   6.591   8.043
   48        0.645   0.807   6.591   8.042
   49        0.625   0.570   6.543   7.737
   50        0.625   0.570   6.543   7.737
   51        0.623   0.551   6.546   7.720
   52        0.623   0.561   6.575   7.759
   53        0.629   0.571   6.545   7.744
   54        0.629   0.571   6.545   7.744
   55        0.623   0.551   6.546   7.721
   56        0.626   0.552   6.538   7.716
   57        0.622   0.550   6.547   7.718
   58        0.598   0.657   6.551   7.806
   59        0.617   0.556   6.547   7.719
   60        0.623   0.552   6.547   7.722
   61        0.598   0.657   6.551   7.806
   62        0.622   0.550   6.547   7.718
   63        0.625   0.553   6.572   7.750
   64        0.623   0.552   6.546   7.721
   65        1.219   2.635   0.000   3.854
   66        0.646   0.088   0.000   0.734
   67        0.636   0.082   0.000   0.718
--------------------------------------------------
tot         42.513  45.688 419.325 507.526
 
    CHARGE:  cpu time      0.1146: real time      0.1151
    FORLOC:  cpu time      0.0156: real time      0.0157
    FORNL :  cpu time      0.4878: real time      0.4899
    STRESS:  cpu time      1.4692: real time      1.4777
    FORCOR:  cpu time      0.0787: real time      0.0792
    FORHAR:  cpu time      0.0269: real time      0.0270
    MIXING:  cpu time      0.0025: real time      0.0025
    OFIELD:  cpu time      0.0000: real time      0.0000

  FORCE on cell =-STRESS in cart. coord.  units (eV):
  Direction    XX          YY          ZZ          XY          YZ          ZX
  --------------------------------------------------------------------------------------
  Alpha Z  1067.80299  1067.80299  1067.80299
  Ewald   80372.20695 80401.78344************     0.08268     1.80737    -0.02805
  Hartree 87885.89936 87886.36563-86362.34949     0.01627     0.54528    -0.00178
  E(xc)   -2442.60729 -2442.08810 -2432.92366    -0.00056     0.06163     0.00070
  Local  ************************181895.32781    -0.09705    -1.09624     0.03437
  n-local   693.82936   694.13758   587.19469     0.00141    -0.74559    -0.00108
  augment  2920.25533  2918.52491  2845.48156     0.00106    -0.24436    -0.00404
  Kinetic  6147.56859  6126.70803  6053.88385    -0.01801    -0.77543     0.00354
  Fock        0.00000     0.00000     0.00000     0.00000     0.00000     0.00000
  -------------------------------------------------------------------------------------
  Total     -62.97594   -65.67490   -53.35352    -0.01420    -0.44733     0.00366
  in kB     -56.15172   -58.55822   -47.57201    -0.01266    -0.39886     0.00327
  external pressure =      -54.09 kB  Pullay stress =        0.00 kB



--------------------------------------------------------------------------------------------------------



  FREE ENERGIE OF THE ION-ELECTRON SYSTEM (eV)
  ---------------------------------------------------
  free  energy   TOTEN  =      -577.40409827 eV

  energy  without entropy=     -577.37919341  energy(sigma->0) =     -577.39164584
 
 d Force =-0.8080853E-03[-0.138E-01, 0.122E-01]  d Energy =-0.5041738E-03-0.304E-03
 d Force =-0.1843531E+01[-0.188E+01,-0.181E+01]  d Ewald  =-0.1843408E+01-0.123E-03


--------------------------------------------------------------------------------------------------------


    POTLOK:  cpu time      0.0761: real time      0.0766


--------------------------------------------------------------------------------------------------------


 Finite differences progress:
  Degree of freedom:   5/  9
  Displacement:        2/  2
  Total:              10/ 18
  LATTYP: Found a hexagonal cell.
 ALAT       =    10.9034004211
 C/A-ratio  =     1.6006841223
  
  Lattice vectors:
  
 A1 = (  10.9034004211,   0.0000000000,   0.0000000000)
 A2 = (  -5.4517002106,   9.4426217523,   0.0000000000)
 A3 = (   0.0000000000,   0.0000000000,  17.4528999329)


Analysis of symmetry for initial positions (statically):
=====================================================================
 Subroutine PRICEL returns:
 Original cell was already a primitive cell.
 

 Routine SETGRP: Setting up the symmetry group for a 
 hexagonal supercell.


 Subroutine GETGRP returns: Found  1 space group operations
 (whereof  1 operations were pure point group operations)
 out of a pool of 24 trial point group operations.


The static configuration has the point symmetry C_1 .


Analysis of symmetry for dynamics (positions and initial velocities):
=====================================================================
 Subroutine PRICEL returns:
 Original cell was already a primitive cell.
 

 Routine SETGRP: Setting up the symmetry group for a 
 hexagonal supercell.


 Subroutine GETGRP returns: Found  1 space group operations
 (whereof  1 operations were pure point group operations)
 out of a pool of 24 trial point group operations.


The dynamic configuration has the point symmetry C_1 .


Analysis of constrained symmetry for selective dynamics:
=====================================================================
 Subroutine PRICEL returns:
 Original cell was already a primitive cell.
 

 Routine SETGRP: Setting up the symmetry group for a 
 hexagonal supercell.


 Subroutine GETGRP returns: Found  1 space group operations
 (whereof  1 operations were pure point group operations)
 out of a pool of 24 trial point group operations.


The constrained configuration has the point symmetry C_1 .


 Subroutine INISYM returns: Found  1 space group operations
 (whereof  1 operations are pure point group operations),
 and found     1 'primitive' translations

 
 KPOINTS: Kpoints                                 

Automatic generation of k-mesh.
 Grid dimensions read from file:
 generate k-points for:    1    1    1

 Generating k-lattice:

  Cartesian coordinates                     Fractional coordinates (reciprocal lattice)
     0.091714508  0.052951396  0.000000000     1.000000000  0.000000000  0.000000000
     0.000000000  0.105902791  0.000000000     0.000000000  1.000000000  0.000000000
     0.000000000  0.000000000  0.057297068     0.000000000  0.000000000  1.000000000

  Length of vectors
     0.105902791  0.105902791  0.057297068

  Shift w.r.t. Gamma in fractional coordinates (k-lattice)
     0.000000000  0.000000000  0.000000000

 
 Subroutine IBZKPT returns following result:
 ===========================================
 
 Found      1 irreducible k-points:
 
 Following reciprocal coordinates:
            Coordinates               Weight
  0.000000  0.000000  0.000000      1.000000
 
 Following cartesian coordinates:
            Coordinates               Weight
  0.000000  0.000000  0.000000      1.000000
 
    WAVPRE:  cpu time      0.0613: real time      0.0936
    FEWALD:  cpu time      0.0015: real time      0.0015
    ORTHCH:  cpu time      0.3989: real time      3.5294
     LOOP+:  cpu time     28.8226: real time     33.2586


--------------------------------------- Ionic step       12  -------------------------------------------




--------------------------------------- Iteration     12(   1)  ---------------------------------------


    POTLOK:  cpu time      0.0544: real time      0.0551
    SETDIJ:  cpu time      0.0094: real time      0.0094
     EDDAV:  cpu time      2.6927: real time      3.8486
       DOS:  cpu time      0.0006: real time      0.0006
    CHARGE:  cpu time      0.1251: real time      0.1258
    MIXING:  cpu time      0.0057: real time      0.0057
    --------------------------------------------
      LOOP:  cpu time      2.8878: real time      4.0452

 eigenvalue-minimisations  :   640
 total energy-change (2. order) :-0.3645577E-02  (-0.1882476E-01)
 number of electron     518.9999651 magnetization 
 augmentation part      175.9522723 magnetization 

  free energy =  -0.577407746493E+03  energy without entropy=  -0.577382869438E+03


--------------------------------------------------------------------------------------------------------




--------------------------------------- Iteration     12(   2)  ---------------------------------------


    POTLOK:  cpu time      0.0733: real time      0.0742
    SETDIJ:  cpu time      0.0119: real time      0.0121
    EDDIAG:  cpu time      0.4171: real time      0.4194
  RMM-DIIS:  cpu time      1.0656: real time      1.0709
    ORTHCH:  cpu time      0.1042: real time      0.1048
       DOS:  cpu time      0.0016: real time      0.0016
    CHARGE:  cpu time      0.1152: real time      0.1158
    MIXING:  cpu time      0.0018: real time      0.0018
    --------------------------------------------
      LOOP:  cpu time      1.7906: real time      1.8005

 eigenvalue-minimisations  :   664
 total energy-change (2. order) : 0.9306162E-03  (-0.6257231E-03)
 number of electron     518.9999651 magnetization 
 augmentation part      175.9132009 magnetization 

 eigenvalues of (default mixing * dielectric matrix)
  average eigenvalue GAMMA=   0.5951
  0.5951

  free energy =  -0.577406815877E+03  energy without entropy=  -0.577381699500E+03


--------------------------------------------------------------------------------------------------------




--------------------------------------- Iteration     12(   3)  ---------------------------------------


    POTLOK:  cpu time      0.0688: real time      0.0695
    SETDIJ:  cpu time      0.0082: real time      0.0082
    EDDIAG:  cpu time      0.4573: real time      0.4599
  RMM-DIIS:  cpu time      1.1846: real time      1.1910
    ORTHCH:  cpu time      0.1127: real time      0.1133
       DOS:  cpu time      0.0018: real time      0.0018
    CHARGE:  cpu time      0.1280: real time      0.1287
    MIXING:  cpu time      0.0020: real time      0.0020
    --------------------------------------------
      LOOP:  cpu time      1.9633: real time      1.9745

 eigenvalue-minimisations  :   702
 total energy-change (2. order) :-0.5324287E-02  (-0.4482547E-03)
 number of electron     518.9999651 magnetization 
 augmentation part      176.0374340 magnetization 

 eigenvalues of (default mixing * dielectric matrix)
  average eigenvalue GAMMA=   0.6165
  1.1667  0.0662

  free energy =  -0.577412140164E+03  energy without entropy=  -0.577388691376E+03


--------------------------------------------------------------------------------------------------------




--------------------------------------- Iteration     12(   4)  ---------------------------------------


    POTLOK:  cpu time      0.0654: real time      0.0664
    SETDIJ:  cpu time      0.0091: real time      0.0092
    EDDIAG:  cpu time      0.4492: real time      0.4520
  RMM-DIIS:  cpu time      1.3794: real time      1.3857
    ORTHCH:  cpu time      0.1173: real time      0.1178
       DOS:  cpu time      0.0018: real time      0.0018
    CHARGE:  cpu time      0.1347: real time      0.1352
    MIXING:  cpu time      0.0021: real time      0.0021
    --------------------------------------------
      LOOP:  cpu time      2.1590: real time      2.1702

 eigenvalue-minimisations  :   692
 total energy-change (2. order) : 0.3517316E-02  (-0.2820526E-03)
 number of electron     518.9999651 magnetization 
 augmentation part      175.9462139 magnetization 

 eigenvalues of (default mixing * dielectric matrix)
  average eigenvalue GAMMA=   0.5047
  1.3030  0.1553  0.0557

  free energy =  -0.577408622849E+03  energy without entropy=  -0.577384364291E+03


--------------------------------------------------------------------------------------------------------




--------------------------------------- Iteration     12(   5)  ---------------------------------------


    POTLOK:  cpu time      0.0720: real time      0.0728
    SETDIJ:  cpu time      0.0094: real time      0.0094
    EDDIAG:  cpu time      0.4582: real time      0.4602
  RMM-DIIS:  cpu time      1.1240: real time      1.1283
    ORTHCH:  cpu time      0.1036: real time      0.1040
       DOS:  cpu time      0.0017: real time      0.0017
    CHARGE:  cpu time      0.1229: real time      0.1233
    MIXING:  cpu time      0.0021: real time      0.0021
    --------------------------------------------
      LOOP:  cpu time      1.8939: real time      1.9020

 eigenvalue-minimisations  :   669
 total energy-change (2. order) : 0.1765451E-02  (-0.1354833E-03)
 number of electron     518.9999651 magnetization 
 augmentation part      175.9598569 magnetization 

 eigenvalues of (default mixing * dielectric matrix)
  average eigenvalue GAMMA=   0.4613
  1.2926  0.3783  0.0555  0.1187

  free energy =  -0.577406857398E+03  energy without entropy=  -0.577381949652E+03


--------------------------------------------------------------------------------------------------------




--------------------------------------- Iteration     12(   6)  ---------------------------------------


    POTLOK:  cpu time      0.0614: real time      0.0621
    SETDIJ:  cpu time      0.0090: real time      0.0090
    EDDIAG:  cpu time      0.4293: real time      0.4310
  RMM-DIIS:  cpu time      1.1450: real time      1.1493
    ORTHCH:  cpu time      0.1396: real time      0.1403
       DOS:  cpu time      0.0015: real time      0.0015
    CHARGE:  cpu time      0.1199: real time      0.1204
    MIXING:  cpu time      0.0021: real time      0.0021
    --------------------------------------------
      LOOP:  cpu time      1.9078: real time      1.9158

 eigenvalue-minimisations  :   698
 total energy-change (2. order) : 0.9095696E-04  (-0.7348833E-04)
 number of electron     518.9999651 magnetization 
 augmentation part      175.9461043 magnetization 

 eigenvalues of (default mixing * dielectric matrix)
  average eigenvalue GAMMA=   0.5351
  1.1781  1.1781  0.1667  0.0556  0.0971

  free energy =  -0.577406766441E+03  energy without entropy=  -0.577382130951E+03


--------------------------------------------------------------------------------------------------------




--------------------------------------- Iteration     12(   7)  ---------------------------------------


    POTLOK:  cpu time      0.0727: real time      0.0735
    SETDIJ:  cpu time      0.0086: real time      0.0087
    EDDIAG:  cpu time      0.4293: real time      0.4736
  RMM-DIIS:  cpu time      1.3825: real time      1.3883
    ORTHCH:  cpu time      0.1379: real time      0.1385
       DOS:  cpu time      0.0015: real time      0.0015
    CHARGE:  cpu time      0.1327: real time      0.1333
    MIXING:  cpu time      0.0023: real time      0.0023
    --------------------------------------------
      LOOP:  cpu time      2.1676: real time      2.2196

 eigenvalue-minimisations  :   702
 total energy-change (2. order) :-0.6562297E-04  (-0.5625668E-04)
 number of electron     518.9999651 magnetization 
 augmentation part      175.9497163 magnetization 

 eigenvalues of (default mixing * dielectric matrix)
  average eigenvalue GAMMA=   0.5600
  1.4405  1.4405  0.2111  0.0554  0.1254  0.0871

  free energy =  -0.577406832064E+03  energy without entropy=  -0.577381850840E+03


--------------------------------------------------------------------------------------------------------




--------------------------------------- Iteration     12(   8)  ---------------------------------------


    POTLOK:  cpu time      0.0596: real time      0.0604
    SETDIJ:  cpu time      0.0083: real time      0.0084
    EDDIAG:  cpu time      0.5004: real time      0.5026
  RMM-DIIS:  cpu time      1.0853: real time      1.0901
    ORTHCH:  cpu time      0.1300: real time      0.1307
       DOS:  cpu time      0.0015: real time      0.0015
    CHARGE:  cpu time      0.1149: real time      0.1155
    MIXING:  cpu time      0.0021: real time      0.0021
    --------------------------------------------
      LOOP:  cpu time      1.9020: real time      1.9113

 eigenvalue-minimisations  :   689
 total energy-change (2. order) : 0.9852758E-04  (-0.3746881E-04)
 number of electron     518.9999651 magnetization 
 augmentation part      175.9221914 magnetization 

 eigenvalues of (default mixing * dielectric matrix)
  average eigenvalue GAMMA=   0.5725
  2.0164  1.2271  0.3425  0.1742  0.0555  0.1125  0.0790

  free energy =  -0.577406733536E+03  energy without entropy=  -0.577381679589E+03


--------------------------------------------------------------------------------------------------------




--------------------------------------- Iteration     12(   9)  ---------------------------------------


    POTLOK:  cpu time      0.0605: real time      0.0614
    SETDIJ:  cpu time      0.0090: real time      0.0090
    EDDIAG:  cpu time      0.4225: real time      0.4246
  RMM-DIIS:  cpu time      1.1776: real time      1.1818
    ORTHCH:  cpu time      0.1064: real time      0.1068
       DOS:  cpu time      0.0016: real time      0.0016
    CHARGE:  cpu time      0.1281: real time      0.1285
    MIXING:  cpu time      0.0026: real time      0.0026
    --------------------------------------------
      LOOP:  cpu time      1.9083: real time      1.9163

 eigenvalue-minimisations  :   707
 total energy-change (2. order) : 0.2005485E-04  (-0.2952662E-04)
 number of electron     518.9999651 magnetization 
 augmentation part      175.9524894 magnetization 

 eigenvalues of (default mixing * dielectric matrix)
  average eigenvalue GAMMA=   0.5479
  2.2281  1.0461  0.5372  0.1967  0.1403  0.0555  0.1031  0.0763

  free energy =  -0.577406713481E+03  energy without entropy=  -0.577381879357E+03


--------------------------------------------------------------------------------------------------------




--------------------------------------- Iteration     12(  10)  ---------------------------------------


    POTLOK:  cpu time      0.0622: real time      0.0631
    SETDIJ:  cpu time      0.0095: real time      0.0095
    EDDIAG:  cpu time      0.4457: real time      0.4475
  RMM-DIIS:  cpu time      1.2391: real time      1.2452
    ORTHCH:  cpu time      0.1261: real time      0.1267
       DOS:  cpu time      0.0017: real time      0.0017
    CHARGE:  cpu time      0.1280: real time      0.1285
    MIXING:  cpu time      0.0024: real time      0.0024
    --------------------------------------------
      LOOP:  cpu time      2.0146: real time      2.0245

 eigenvalue-minimisations  :   611
 total energy-change (2. order) : 0.1394081E-03  (-0.1122756E-04)
 number of electron     518.9999651 magnetization 
 augmentation part      175.9445195 magnetization 

 eigenvalues of (default mixing * dielectric matrix)
  average eigenvalue GAMMA=   0.5296
  2.2940  0.8090  0.8090  0.3079  0.1840  0.0555  0.1327  0.1000  0.0744

  free energy =  -0.577406574073E+03  energy without entropy=  -0.577381710946E+03


--------------------------------------------------------------------------------------------------------




--------------------------------------- Iteration     12(  11)  ---------------------------------------


    POTLOK:  cpu time      0.0631: real time      0.0639
    SETDIJ:  cpu time      0.0091: real time      0.0091
    EDDIAG:  cpu time      0.4555: real time      0.4574
  RMM-DIIS:  cpu time      0.8743: real time      0.8784
    ORTHCH:  cpu time      0.1085: real time      0.1091
       DOS:  cpu time      0.0017: real time      0.0017
    CHARGE:  cpu time      0.1222: real time      0.1228
    MIXING:  cpu time      0.0024: real time      0.0024
    --------------------------------------------
      LOOP:  cpu time      1.6369: real time      1.6448

 eigenvalue-minimisations  :   479
 total energy-change (2. order) : 0.2577407E-04  (-0.5431703E-05)
 number of electron     518.9999651 magnetization 
 augmentation part      175.9495567 magnetization 

 eigenvalues of (default mixing * dielectric matrix)
  average eigenvalue GAMMA=   0.5249
  2.3183  0.9281  0.9281  0.3821  0.1921  0.0555  0.1442  0.1282  0.0983  0.0741

  free energy =  -0.577406548299E+03  energy without entropy=  -0.577381586895E+03


--------------------------------------------------------------------------------------------------------




--------------------------------------- Iteration     12(  12)  ---------------------------------------


    POTLOK:  cpu time      0.0678: real time      0.0687
    SETDIJ:  cpu time      0.0088: real time      0.0088
    EDDIAG:  cpu time      0.4315: real time      0.4339
  RMM-DIIS:  cpu time      0.7227: real time      0.7266
    ORTHCH:  cpu time      0.1280: real time      0.1287
       DOS:  cpu time      0.0014: real time      0.0014
    CHARGE:  cpu time      0.1157: real time      0.1164
    MIXING:  cpu time      0.0024: real time      0.0024
    --------------------------------------------
      LOOP:  cpu time      1.4782: real time      1.4869

 eigenvalue-minimisations  :   385
 total energy-change (2. order) : 0.1167895E-04  (-0.3503308E-05)
 number of electron     518.9999651 magnetization 
 augmentation part      175.9477535 magnetization 

 eigenvalues of (default mixing * dielectric matrix)
  average eigenvalue GAMMA=   0.5161
  2.3220  1.0214  1.0214  0.4085  0.2514  0.1857  0.0555  0.1377  0.0739  0.1055
  0.0943

  free energy =  -0.577406536620E+03  energy without entropy=  -0.577381679444E+03


--------------------------------------------------------------------------------------------------------




--------------------------------------- Iteration     12(  13)  ---------------------------------------


    POTLOK:  cpu time      0.0553: real time      0.0600
    SETDIJ:  cpu time      0.0084: real time      0.0085
    EDDIAG:  cpu time      0.4264: real time      0.4286
  RMM-DIIS:  cpu time      0.6376: real time      0.6407
    ORTHCH:  cpu time      0.1126: real time      0.1132
       DOS:  cpu time      0.0016: real time      0.0016
    --------------------------------------------
      LOOP:  cpu time      1.2419: real time      1.2525

 eigenvalue-minimisations  :   344
 total energy-change (2. order) : 0.4617737E-05  (-0.1168433E-05)
 number of electron     518.9999651 magnetization 
 augmentation part      175.9477535 magnetization 

  free energy =  -0.577406532002E+03  energy without entropy=  -0.577381593919E+03


--------------------------------------------------------------------------------------------------------




------------------------ aborting loop because EDIFF is reached ----------------------------------------





 total charge

# of ion       s       p       d       tot
------------------------------------------
    1        0.610   0.534   6.500   7.643
    2        0.610   0.531   6.505   7.646
    3        0.608   0.536   6.500   7.644
    4        0.605   0.532   6.507   7.645
    5        0.610   0.534   6.500   7.644
    6        0.609   0.534   6.496   7.639
    7        0.605   0.532   6.508   7.646
    8        0.608   0.536   6.499   7.643
    9        0.608   0.533   6.505   7.646
   10        0.605   0.536   6.502   7.643
   11        0.607   0.536   6.502   7.645
   12        0.607   0.536   6.501   7.644
   13        0.604   0.540   6.495   7.639
   14        0.605   0.536   6.503   7.645
   15        0.609   0.535   6.499   7.643
   16        0.609   0.535   6.499   7.643
   17        0.632   0.774   6.570   7.976
   18        0.632   0.774   6.569   7.975
   19        0.630   0.774   6.568   7.972
   20        0.629   0.770   6.560   7.959
   21        0.630   0.771   6.571   7.972
   22        0.630   0.771   6.571   7.972
   23        0.630   0.774   6.568   7.972
   24        0.631   0.772   6.572   7.975
   25        0.631   0.774   6.568   7.973
   26        0.631   0.774   6.567   7.973
   27        0.629   0.774   6.564   7.966
   28        0.632   0.774   6.564   7.970
   29        0.631   0.774   6.567   7.973
   30        0.631   0.774   6.568   7.973
   31        0.630   0.776   6.564   7.969
   32        0.632   0.774   6.564   7.970
   33        0.642   0.806   6.594   8.041
   34        0.647   0.817   6.589   8.053
   35        0.642   0.805   6.593   8.040
   36        0.639   0.794   6.581   8.015
   37        0.642   0.806   6.593   8.041
   38        0.642   0.799   6.596   8.036
   39        0.639   0.794   6.581   8.015
   40        0.642   0.805   6.593   8.040
   41        0.644   0.804   6.588   8.037
   42        0.643   0.796   6.594   8.033
   43        0.643   0.802   6.597   8.042
   44        0.643   0.802   6.597   8.042
   45        0.633   0.790   6.567   7.991
   46        0.643   0.796   6.594   8.033
   47        0.645   0.807   6.591   8.042
   48        0.645   0.807   6.591   8.043
   49        0.625   0.570   6.543   7.737
   50        0.625   0.570   6.543   7.738
   51        0.623   0.551   6.546   7.720
   52        0.623   0.561   6.574   7.759
   53        0.629   0.571   6.545   7.744
   54        0.629   0.571   6.545   7.745
   55        0.623   0.551   6.545   7.719
   56        0.626   0.552   6.538   7.716
   57        0.622   0.550   6.547   7.719
   58        0.598   0.657   6.551   7.806
   59        0.617   0.556   6.546   7.719
   60        0.622   0.552   6.546   7.721
   61        0.598   0.657   6.551   7.805
   62        0.622   0.550   6.547   7.719
   63        0.625   0.553   6.572   7.750
   64        0.623   0.552   6.547   7.721
   65        1.218   2.622   0.000   3.840
   66        0.625   0.079   0.000   0.703
   67        0.636   0.082   0.000   0.718
--------------------------------------------------
tot         42.490  45.667 419.324 507.480
 
    CHARGE:  cpu time      0.1260: real time      0.1266
    FORLOC:  cpu time      0.0154: real time      0.0155
    FORNL :  cpu time      0.5927: real time      0.5954
    STRESS:  cpu time      1.6849: real time      1.6919
    FORCOR:  cpu time      0.0612: real time      0.0614
    FORHAR:  cpu time      0.0254: real time      0.0255
    MIXING:  cpu time      0.0020: real time      0.0020
    OFIELD:  cpu time      0.0000: real time      0.0000

  FORCE on cell =-STRESS in cart. coord.  units (eV):
  Direction    XX          YY          ZZ          XY          YZ          ZX
  --------------------------------------------------------------------------------------
  Alpha Z  1067.80299  1067.80299  1067.80299
  Ewald   80369.61416 80398.06651************     0.08344     1.20758    -0.02757
  Hartree 87883.04019 87883.59201-86360.29862     0.03903     0.66905    -0.00413
  E(xc)   -2442.54045 -2442.01175 -2432.83831    -0.00039     0.06824    -0.00075
  Local  ************************181890.98983    -0.11198    -0.95878     0.02026
  n-local   693.98921   694.40414   587.36364     0.00443    -0.69711     0.00249
  augment  2920.27130  2918.51107  2845.45324     0.00207    -0.25536    -0.00043
  Kinetic  6147.22064  6126.29657  6053.36399     0.00396    -0.91274     0.01042
  Fock        0.00000     0.00000     0.00000     0.00000     0.00000     0.00000
  -------------------------------------------------------------------------------------
  Total     -63.01166   -66.19794   -53.66944     0.02056    -0.87912     0.00029
  in kB     -56.18357   -59.02458   -47.85370     0.01833    -0.78385     0.00026
  external pressure =      -54.35 kB  Pullay stress =        0.00 kB



--------------------------------------------------------------------------------------------------------



  FREE ENERGIE OF THE ION-ELECTRON SYSTEM (eV)
  ---------------------------------------------------
  free  energy   TOTEN  =      -577.40653200 eV

  energy  without entropy=     -577.38159392  energy(sigma->0) =     -577.39406296
 
 d Force = 0.2630908E-02[-0.635E-02, 0.116E-01]  d Energy = 0.2433734E-02 0.197E-03
 d Force = 0.4044918E+01[ 0.401E+01, 0.408E+01]  d Ewald  = 0.4044624E+01 0.294E-03


--------------------------------------------------------------------------------------------------------


    POTLOK:  cpu time      0.0923: real time      0.0927


--------------------------------------------------------------------------------------------------------


 Finite differences progress:
  Degree of freedom:   6/  9
  Displacement:        1/  2
  Total:              11/ 18
  LATTYP: Found a hexagonal cell.
 ALAT       =    10.9034004211
 C/A-ratio  =     1.6006841223
  
  Lattice vectors:
  
 A1 = (  10.9034004211,   0.0000000000,   0.0000000000)
 A2 = (  -5.4517002106,   9.4426217523,   0.0000000000)
 A3 = (   0.0000000000,   0.0000000000,  17.4528999329)


Analysis of symmetry for initial positions (statically):
=====================================================================
 Subroutine PRICEL returns:
 Original cell was already a primitive cell.
 

 Routine SETGRP: Setting up the symmetry group for a 
 hexagonal supercell.


 Subroutine GETGRP returns: Found  1 space group operations
 (whereof  1 operations were pure point group operations)
 out of a pool of 24 trial point group operations.


The static configuration has the point symmetry C_1 .


Analysis of symmetry for dynamics (positions and initial velocities):
=====================================================================
 Subroutine PRICEL returns:
 Original cell was already a primitive cell.
 

 Routine SETGRP: Setting up the symmetry group for a 
 hexagonal supercell.


 Subroutine GETGRP returns: Found  1 space group operations
 (whereof  1 operations were pure point group operations)
 out of a pool of 24 trial point group operations.


The dynamic configuration has the point symmetry C_1 .


Analysis of constrained symmetry for selective dynamics:
=====================================================================
 Subroutine PRICEL returns:
 Original cell was already a primitive cell.
 

 Routine SETGRP: Setting up the symmetry group for a 
 hexagonal supercell.


 Subroutine GETGRP returns: Found  1 space group operations
 (whereof  1 operations were pure point group operations)
 out of a pool of 24 trial point group operations.


The constrained configuration has the point symmetry C_1 .


 Subroutine INISYM returns: Found  1 space group operations
 (whereof  1 operations are pure point group operations),
 and found     1 'primitive' translations

 
 KPOINTS: Kpoints                                 

Automatic generation of k-mesh.
 Grid dimensions read from file:
 generate k-points for:    1    1    1

 Generating k-lattice:

  Cartesian coordinates                     Fractional coordinates (reciprocal lattice)
     0.091714508  0.052951396  0.000000000     1.000000000  0.000000000  0.000000000
     0.000000000  0.105902791  0.000000000     0.000000000  1.000000000  0.000000000
     0.000000000  0.000000000  0.057297068     0.000000000  0.000000000  1.000000000

  Length of vectors
     0.105902791  0.105902791  0.057297068

  Shift w.r.t. Gamma in fractional coordinates (k-lattice)
     0.000000000  0.000000000  0.000000000

 
 Subroutine IBZKPT returns following result:
 ===========================================
 
 Found      1 irreducible k-points:
 
 Following reciprocal coordinates:
            Coordinates               Weight
  0.000000  0.000000  0.000000      1.000000
 
 Following cartesian coordinates:
            Coordinates               Weight
  0.000000  0.000000  0.000000      1.000000
 
    WAVPRE:  cpu time      0.0568: real time      0.0721
    FEWALD:  cpu time      0.0017: real time      0.0017
    ORTHCH:  cpu time      0.7448: real time      3.6617
     LOOP+:  cpu time     28.3916: real time     32.6495


--------------------------------------- Ionic step       13  -------------------------------------------




--------------------------------------- Iteration     13(   1)  ---------------------------------------


    POTLOK:  cpu time      0.0565: real time      0.0575
    SETDIJ:  cpu time      0.0088: real time      0.0089
     EDDAV:  cpu time      2.6116: real time      3.7505
       DOS:  cpu time      0.0007: real time      0.0007
    CHARGE:  cpu time      0.1149: real time      0.1154
    MIXING:  cpu time      0.0018: real time      0.0018
    --------------------------------------------
      LOOP:  cpu time      2.7943: real time      3.9348

 eigenvalue-minimisations  :   640
 total energy-change (2. order) : 0.8223440E-03  (-0.3304161E-01)
 number of electron     518.9999644 magnetization 
 augmentation part      175.9452180 magnetization 

  free energy =  -0.577405714276E+03  energy without entropy=  -0.577380796205E+03


--------------------------------------------------------------------------------------------------------




--------------------------------------- Iteration     13(   2)  ---------------------------------------


    POTLOK:  cpu time      0.0639: real time      0.0647
    SETDIJ:  cpu time      0.0454: real time      0.0456
    EDDIAG:  cpu time      0.5068: real time      0.5093
  RMM-DIIS:  cpu time      1.3046: real time      1.3097
    ORTHCH:  cpu time      0.1459: real time      0.1464
       DOS:  cpu time      0.0016: real time      0.0016
    CHARGE:  cpu time      0.1371: real time      0.1376
    MIXING:  cpu time      0.0022: real time      0.0022
    --------------------------------------------
      LOOP:  cpu time      2.2075: real time      2.2171

 eigenvalue-minimisations  :   667
 total energy-change (2. order) : 0.1407872E-03  (-0.4631320E-03)
 number of electron     518.9999644 magnetization 
 augmentation part      175.9747639 magnetization 

 eigenvalues of (default mixing * dielectric matrix)
  average eigenvalue GAMMA=   0.4298
  0.4298

  free energy =  -0.577405573489E+03  energy without entropy=  -0.577380830355E+03


--------------------------------------------------------------------------------------------------------




--------------------------------------- Iteration     13(   3)  ---------------------------------------


    POTLOK:  cpu time      0.0593: real time      0.0598
    SETDIJ:  cpu time      0.0088: real time      0.0088
    EDDIAG:  cpu time      0.5193: real time      0.5213
  RMM-DIIS:  cpu time      1.0833: real time      1.0878
    ORTHCH:  cpu time      0.1104: real time      0.1109
       DOS:  cpu time      0.0018: real time      0.0018
    CHARGE:  cpu time      0.1274: real time      0.1279
    MIXING:  cpu time      0.0019: real time      0.0019
    --------------------------------------------
      LOOP:  cpu time      1.9123: real time      1.9203

 eigenvalue-minimisations  :   693
 total energy-change (2. order) :-0.2460347E-02  (-0.2778891E-03)
 number of electron     518.9999644 magnetization 
 augmentation part      175.8973208 magnetization 

 eigenvalues of (default mixing * dielectric matrix)
  average eigenvalue GAMMA=   0.5907
  1.1176  0.0638

  free energy =  -0.577408033836E+03  energy without entropy=  -0.577383442005E+03


--------------------------------------------------------------------------------------------------------




--------------------------------------- Iteration     13(   4)  ---------------------------------------


    POTLOK:  cpu time      0.0627: real time      0.0634
    SETDIJ:  cpu time      0.0093: real time      0.0094
    EDDIAG:  cpu time      0.4405: real time      0.4425
  RMM-DIIS:  cpu time      1.2674: real time      1.2723
    ORTHCH:  cpu time      0.1246: real time      0.1252
       DOS:  cpu time      0.0016: real time      0.0017
    CHARGE:  cpu time      0.1249: real time      0.1255
    MIXING:  cpu time      0.0019: real time      0.0020
    --------------------------------------------
      LOOP:  cpu time      2.0330: real time      2.0420

 eigenvalue-minimisations  :   762
 total energy-change (2. order) : 0.7009435E-03  (-0.4029929E-03)
 number of electron     518.9999644 magnetization 
 augmentation part      175.9801206 magnetization 

 eigenvalues of (default mixing * dielectric matrix)
  average eigenvalue GAMMA=   0.5439
  1.4272  0.1481  0.0565

  free energy =  -0.577407332892E+03  energy without entropy=  -0.577382745738E+03


--------------------------------------------------------------------------------------------------------




--------------------------------------- Iteration     13(   5)  ---------------------------------------


    POTLOK:  cpu time      0.0725: real time      0.0733
    SETDIJ:  cpu time      0.0087: real time      0.0087
    EDDIAG:  cpu time      0.4760: real time      0.4787
  RMM-DIIS:  cpu time      1.1782: real time      1.1843
    ORTHCH:  cpu time      0.1075: real time      0.1080
       DOS:  cpu time      0.0016: real time      0.0016
    CHARGE:  cpu time      0.1257: real time      0.1263
    MIXING:  cpu time      0.0019: real time      0.0019
    --------------------------------------------
      LOOP:  cpu time      1.9721: real time      1.9828

 eigenvalue-minimisations  :   702
 total energy-change (2. order) : 0.1775007E-02  (-0.2175639E-03)
 number of electron     518.9999644 magnetization 
 augmentation part      175.9089957 magnetization 

 eigenvalues of (default mixing * dielectric matrix)
  average eigenvalue GAMMA=   0.4686
  1.4862  0.2190  0.0565  0.1126

  free energy =  -0.577405557885E+03  energy without entropy=  -0.577380586837E+03


--------------------------------------------------------------------------------------------------------




--------------------------------------- Iteration     13(   6)  ---------------------------------------


    POTLOK:  cpu time      0.0608: real time      0.0615
    SETDIJ:  cpu time      0.0084: real time      0.0085
    EDDIAG:  cpu time      0.4306: real time      0.4330
  RMM-DIIS:  cpu time      1.1605: real time      1.1661
    ORTHCH:  cpu time      0.1048: real time      0.1053
       DOS:  cpu time      0.0016: real time      0.0016
    CHARGE:  cpu time      0.1210: real time      0.1215
    MIXING:  cpu time      0.0020: real time      0.0020
    --------------------------------------------
      LOOP:  cpu time      1.8897: real time      1.8995

 eigenvalue-minimisations  :   698
 total energy-change (2. order) : 0.2793956E-03  (-0.7291722E-04)
 number of electron     518.9999644 magnetization 
 augmentation part      175.9634914 magnetization 

 eigenvalues of (default mixing * dielectric matrix)
  average eigenvalue GAMMA=   0.5381
  1.5841  0.8070  0.1616  0.0565  0.0814

  free energy =  -0.577405278490E+03  energy without entropy=  -0.577380500896E+03


--------------------------------------------------------------------------------------------------------




--------------------------------------- Iteration     13(   7)  ---------------------------------------


    POTLOK:  cpu time      0.0584: real time      0.0591
    SETDIJ:  cpu time      0.0083: real time      0.0083
    EDDIAG:  cpu time      0.4099: real time      0.4118
  RMM-DIIS:  cpu time      1.1678: real time      1.1722
    ORTHCH:  cpu time      0.1071: real time      0.1075
       DOS:  cpu time      0.0015: real time      0.0015
    CHARGE:  cpu time      0.1144: real time      0.1148
    MIXING:  cpu time      0.0022: real time      0.0022
    --------------------------------------------
      LOOP:  cpu time      1.8696: real time      1.8774

 eigenvalue-minimisations  :   749
 total energy-change (2. order) :-0.7764214E-04  (-0.7957004E-04)
 number of electron     518.9999644 magnetization 
 augmentation part      175.9380736 magnetization 

 eigenvalues of (default mixing * dielectric matrix)
  average eigenvalue GAMMA=   0.6179
  2.0549  1.2031  0.1841  0.1338  0.0564  0.0752

  free energy =  -0.577405356132E+03  energy without entropy=  -0.577380573159E+03


--------------------------------------------------------------------------------------------------------




--------------------------------------- Iteration     13(   8)  ---------------------------------------


    POTLOK:  cpu time      0.0564: real time      0.0570
    SETDIJ:  cpu time      0.0101: real time      0.0101
    EDDIAG:  cpu time      0.4220: real time      0.4237
  RMM-DIIS:  cpu time      1.0609: real time      1.0648
    ORTHCH:  cpu time      0.1016: real time      0.1020
       DOS:  cpu time      0.0014: real time      0.0014
    CHARGE:  cpu time      0.1182: real time      0.1187
    MIXING:  cpu time      0.0023: real time      0.0023
    --------------------------------------------
      LOOP:  cpu time      1.7729: real time      1.7801

 eigenvalue-minimisations  :   675
 total energy-change (2. order) : 0.2022859E-03  (-0.4342757E-04)
 number of electron     518.9999644 magnetization 
 augmentation part      175.9578232 magnetization 

 eigenvalues of (default mixing * dielectric matrix)
  average eigenvalue GAMMA=   0.5846
  2.2359  1.1733  0.2447  0.1802  0.1265  0.0565  0.0752

  free energy =  -0.577405153846E+03  energy without entropy=  -0.577380293548E+03


--------------------------------------------------------------------------------------------------------




--------------------------------------- Iteration     13(   9)  ---------------------------------------


    POTLOK:  cpu time      0.0698: real time      0.0704
    SETDIJ:  cpu time      0.0087: real time      0.0087
    EDDIAG:  cpu time      0.4370: real time      0.4387
  RMM-DIIS:  cpu time      1.1485: real time      1.1532
    ORTHCH:  cpu time      0.1224: real time      0.1230
       DOS:  cpu time      0.0019: real time      0.0019
    CHARGE:  cpu time      0.1279: real time      0.1286
    MIXING:  cpu time      0.0024: real time      0.0024
    --------------------------------------------
      LOOP:  cpu time      1.9184: real time      1.9269

 eigenvalue-minimisations  :   663
 total energy-change (2. order) : 0.2413631E-04  (-0.1918054E-04)
 number of electron     518.9999644 magnetization 
 augmentation part      175.9557484 magnetization 

 eigenvalues of (default mixing * dielectric matrix)
  average eigenvalue GAMMA=   0.5509
  2.3310  1.1000  0.4109  0.1909  0.1386  0.0565  0.0748  0.1042

  free energy =  -0.577405129710E+03  energy without entropy=  -0.577380411471E+03


--------------------------------------------------------------------------------------------------------




--------------------------------------- Iteration     13(  10)  ---------------------------------------


    POTLOK:  cpu time      0.0687: real time      0.0696
    SETDIJ:  cpu time      0.0094: real time      0.0095
    EDDIAG:  cpu time      0.4538: real time      0.4562
  RMM-DIIS:  cpu time      1.0877: real time      1.0935
    ORTHCH:  cpu time      0.1253: real time      0.1260
       DOS:  cpu time      0.0019: real time      0.0019
    CHARGE:  cpu time      0.1288: real time      0.1296
    MIXING:  cpu time      0.0027: real time      0.0027
    --------------------------------------------
      LOOP:  cpu time      1.8784: real time      1.8890

 eigenvalue-minimisations  :   580
 total energy-change (2. order) : 0.6068532E-04  (-0.7159245E-05)
 number of electron     518.9999644 magnetization 
 augmentation part      175.9477856 magnetization 

 eigenvalues of (default mixing * dielectric matrix)
  average eigenvalue GAMMA=   0.5252
  2.3591  0.9178  0.6517  0.2632  0.1792  0.1351  0.0565  0.0745  0.0900

  free energy =  -0.577405069024E+03  energy without entropy=  -0.577380090560E+03


--------------------------------------------------------------------------------------------------------




--------------------------------------- Iteration     13(  11)  ---------------------------------------


    POTLOK:  cpu time      0.0654: real time      0.0665
    SETDIJ:  cpu time      0.0090: real time      0.0090
    EDDIAG:  cpu time      0.4630: real time      0.4656
  RMM-DIIS:  cpu time      0.8505: real time      0.8550
    ORTHCH:  cpu time      0.1178: real time      0.1184
       DOS:  cpu time      0.0020: real time      0.0020
    CHARGE:  cpu time      0.1291: real time      0.1298
    MIXING:  cpu time      0.0028: real time      0.0028
    --------------------------------------------
      LOOP:  cpu time      1.6397: real time      1.6491

 eigenvalue-minimisations  :   408
 total energy-change (2. order) : 0.2406287E-04  (-0.3321931E-05)
 number of electron     518.9999644 magnetization 
 augmentation part      175.9455639 magnetization 

 eigenvalues of (default mixing * dielectric matrix)
  average eigenvalue GAMMA=   0.5219
  2.3708  0.9210  0.9210  0.3123  0.1892  0.1556  0.1320  0.0565  0.0744  0.0865

  free energy =  -0.577405044961E+03  energy without entropy=  -0.577380152269E+03


--------------------------------------------------------------------------------------------------------




--------------------------------------- Iteration     13(  12)  ---------------------------------------


    POTLOK:  cpu time      0.0685: real time      0.0696
    SETDIJ:  cpu time      0.0090: real time      0.0091
    EDDIAG:  cpu time      0.4571: real time      0.4597
  RMM-DIIS:  cpu time      0.7881: real time      0.7920
    ORTHCH:  cpu time      0.1151: real time      0.1156
       DOS:  cpu time      0.0016: real time      0.0016
    --------------------------------------------
      LOOP:  cpu time      1.4394: real time      1.4475

 eigenvalue-minimisations  :   359
 total energy-change (2. order) : 0.6218455E-05  (-0.2195951E-05)
 number of electron     518.9999644 magnetization 
 augmentation part      175.9455639 magnetization 

  free energy =  -0.577405038743E+03  energy without entropy=  -0.577380114572E+03


--------------------------------------------------------------------------------------------------------




------------------------ aborting loop because EDIFF is reached ----------------------------------------





 total charge

# of ion       s       p       d       tot
------------------------------------------
    1        0.610   0.534   6.501   7.645
    2        0.610   0.531   6.506   7.647
    3        0.608   0.536   6.499   7.643
    4        0.605   0.532   6.508   7.646
    5        0.610   0.534   6.501   7.645
    6        0.609   0.534   6.496   7.639
    7        0.605   0.532   6.507   7.644
    8        0.608   0.536   6.500   7.644
    9        0.608   0.533   6.505   7.645
   10        0.605   0.536   6.502   7.644
   11        0.607   0.536   6.501   7.643
   12        0.607   0.536   6.501   7.643
   13        0.604   0.540   6.497   7.641
   14        0.605   0.536   6.502   7.644
   15        0.609   0.535   6.499   7.643
   16        0.609   0.535   6.500   7.643
   17        0.632   0.774   6.569   7.975
   18        0.632   0.774   6.569   7.975
   19        0.630   0.774   6.568   7.972
   20        0.629   0.770   6.560   7.959
   21        0.630   0.771   6.571   7.971
   22        0.630   0.771   6.571   7.971
   23        0.630   0.774   6.568   7.972
   24        0.631   0.772   6.572   7.974
   25        0.631   0.774   6.567   7.972
   26        0.631   0.774   6.567   7.973
   27        0.629   0.774   6.564   7.966
   28        0.632   0.774   6.564   7.970
   29        0.631   0.774   6.567   7.973
   30        0.631   0.774   6.567   7.972
   31        0.630   0.776   6.564   7.969
   32        0.632   0.774   6.564   7.970
   33        0.642   0.806   6.593   8.041
   34        0.647   0.817   6.589   8.053
   35        0.642   0.805   6.594   8.041
   36        0.639   0.794   6.582   8.015
   37        0.642   0.806   6.593   8.041
   38        0.642   0.799   6.596   8.036
   39        0.639   0.794   6.582   8.015
   40        0.642   0.805   6.594   8.041
   41        0.644   0.805   6.588   8.036
   42        0.643   0.796   6.594   8.033
   43        0.643   0.802   6.597   8.042
   44        0.643   0.802   6.597   8.042
   45        0.633   0.790   6.568   7.991
   46        0.643   0.796   6.594   8.032
   47        0.645   0.807   6.591   8.043
   48        0.645   0.807   6.591   8.042
   49        0.625   0.570   6.543   7.738
   50        0.625   0.570   6.542   7.737
   51        0.623   0.551   6.547   7.721
   52        0.623   0.561   6.575   7.759
   53        0.629   0.571   6.546   7.746
   54        0.629   0.571   6.545   7.745
   55        0.623   0.551   6.547   7.721
   56        0.626   0.552   6.539   7.717
   57        0.622   0.549   6.547   7.718
   58        0.598   0.657   6.551   7.807
   59        0.617   0.556   6.545   7.717
   60        0.622   0.552   6.547   7.722
   61        0.598   0.657   6.551   7.806
   62        0.622   0.549   6.546   7.717
   63        0.625   0.553   6.573   7.751
   64        0.622   0.552   6.547   7.722
   65        1.219   2.634   0.000   3.853
   66        0.642   0.086   0.000   0.728
   67        0.635   0.082   0.000   0.717
--------------------------------------------------
tot         42.507  45.684 419.329 507.521
 
    CHARGE:  cpu time      0.1262: real time      0.1268
    FORLOC:  cpu time      0.0297: real time      0.0299
    FORNL :  cpu time      0.5237: real time      0.5257
    STRESS:  cpu time      1.4837: real time      1.4891
    FORCOR:  cpu time      0.0605: real time      0.0607
    FORHAR:  cpu time      0.0249: real time      0.0250
    MIXING:  cpu time      0.0019: real time      0.0019
    OFIELD:  cpu time      0.0000: real time      0.0000

  FORCE on cell =-STRESS in cart. coord.  units (eV):
  Direction    XX          YY          ZZ          XY          YZ          ZX
  --------------------------------------------------------------------------------------
  Alpha Z  1067.80299  1067.80299  1067.80299
  Ewald   80374.73332 80405.55297************     0.08251     1.12890    -0.02755
  Hartree 87887.52772 87888.43560-86364.50696     0.02520     0.40143    -0.00031
  E(xc)   -2442.59994 -2442.07208 -2432.90703    -0.00060     0.06029    -0.00007
  Local  ************************181901.47994    -0.10111    -0.43692     0.02316
  n-local   693.81309   694.14729   587.15782     0.00073    -0.74640     0.00188
  augment  2920.29767  2918.55812  2845.48665     0.00311    -0.24837    -0.00241
  Kinetic  6147.59169  6126.38588  6054.13534    -0.00282    -0.67668     0.00703
  Fock        0.00000     0.00000     0.00000     0.00000     0.00000     0.00000
  -------------------------------------------------------------------------------------
  Total     -62.96069   -65.75557   -53.22285     0.00702    -0.51775     0.00174
  in kB     -56.13813   -58.63015   -47.45550     0.00626    -0.46164     0.00155
  external pressure =      -54.07 kB  Pullay stress =        0.00 kB



--------------------------------------------------------------------------------------------------------



  FREE ENERGIE OF THE ION-ELECTRON SYSTEM (eV)
  ---------------------------------------------------
  free  energy   TOTEN  =      -577.40503874 eV

  energy  without entropy=     -577.38011457  energy(sigma->0) =     -577.39257666
 
 d Force =-0.1493668E-02[-0.868E-02, 0.569E-02]  d Energy =-0.1493259E-02-0.409E-06
 d Force =-0.6239864E+01[-0.626E+01,-0.622E+01]  d Ewald  =-0.6240211E+01 0.347E-03


--------------------------------------------------------------------------------------------------------


    POTLOK:  cpu time      0.0674: real time      0.0677


--------------------------------------------------------------------------------------------------------


 Finite differences progress:
  Degree of freedom:   6/  9
  Displacement:        2/  2
  Total:              12/ 18
  LATTYP: Found a hexagonal cell.
 ALAT       =    10.9034004211
 C/A-ratio  =     1.6006841223
  
  Lattice vectors:
  
 A1 = (  10.9034004211,   0.0000000000,   0.0000000000)
 A2 = (  -5.4517002106,   9.4426217523,   0.0000000000)
 A3 = (   0.0000000000,   0.0000000000,  17.4528999329)


Analysis of symmetry for initial positions (statically):
=====================================================================
 Subroutine PRICEL returns:
 Original cell was already a primitive cell.
 

 Routine SETGRP: Setting up the symmetry group for a 
 hexagonal supercell.


 Subroutine GETGRP returns: Found  1 space group operations
 (whereof  1 operations were pure point group operations)
 out of a pool of 24 trial point group operations.


The static configuration has the point symmetry C_1 .


Analysis of symmetry for dynamics (positions and initial velocities):
=====================================================================
 Subroutine PRICEL returns:
 Original cell was already a primitive cell.
 

 Routine SETGRP: Setting up the symmetry group for a 
 hexagonal supercell.


 Subroutine GETGRP returns: Found  1 space group operations
 (whereof  1 operations were pure point group operations)
 out of a pool of 24 trial point group operations.


The dynamic configuration has the point symmetry C_1 .


Analysis of constrained symmetry for selective dynamics:
=====================================================================
 Subroutine PRICEL returns:
 Original cell was already a primitive cell.
 

 Routine SETGRP: Setting up the symmetry group for a 
 hexagonal supercell.


 Subroutine GETGRP returns: Found  1 space group operations
 (whereof  1 operations were pure point group operations)
 out of a pool of 24 trial point group operations.


The constrained configuration has the point symmetry C_1 .


 Subroutine INISYM returns: Found  1 space group operations
 (whereof  1 operations are pure point group operations),
 and found     1 'primitive' translations

 
 KPOINTS: Kpoints                                 

Automatic generation of k-mesh.
 Grid dimensions read from file:
 generate k-points for:    1    1    1

 Generating k-lattice:

  Cartesian coordinates                     Fractional coordinates (reciprocal lattice)
     0.091714508  0.052951396  0.000000000     1.000000000  0.000000000  0.000000000
     0.000000000  0.105902791  0.000000000     0.000000000  1.000000000  0.000000000
     0.000000000  0.000000000  0.057297068     0.000000000  0.000000000  1.000000000

  Length of vectors
     0.105902791  0.105902791  0.057297068

  Shift w.r.t. Gamma in fractional coordinates (k-lattice)
     0.000000000  0.000000000  0.000000000

 
 Subroutine IBZKPT returns following result:
 ===========================================
 
 Found      1 irreducible k-points:
 
 Following reciprocal coordinates:
            Coordinates               Weight
  0.000000  0.000000  0.000000      1.000000
 
 Following cartesian coordinates:
            Coordinates               Weight
  0.000000  0.000000  0.000000      1.000000
 
    WAVPRE:  cpu time      0.0547: real time      0.0871
    FEWALD:  cpu time      0.0016: real time      0.0016
    ORTHCH:  cpu time      0.4040: real time      3.6117
     LOOP+:  cpu time     26.1381: real time     30.6356


--------------------------------------- Ionic step       14  -------------------------------------------




--------------------------------------- Iteration     14(   1)  ---------------------------------------


    POTLOK:  cpu time      0.0557: real time      0.0566
    SETDIJ:  cpu time      0.0087: real time      0.0087
     EDDAV:  cpu time      2.5523: real time      3.7002
       DOS:  cpu time      0.0007: real time      0.0007
    CHARGE:  cpu time      0.1278: real time      0.1284
    MIXING:  cpu time      0.0019: real time      0.0019
    --------------------------------------------
      LOOP:  cpu time      2.7471: real time      3.8964

 eigenvalue-minimisations  :   640
 total energy-change (2. order) :-0.2402428E-02  (-0.1561202E-01)
 number of electron     518.9999648 magnetization 
 augmentation part      175.9482970 magnetization 

  free energy =  -0.577407447390E+03  energy without entropy=  -0.577382539932E+03


--------------------------------------------------------------------------------------------------------




--------------------------------------- Iteration     14(   2)  ---------------------------------------


    POTLOK:  cpu time      0.0625: real time      0.0631
    SETDIJ:  cpu time      0.0119: real time      0.0120
    EDDIAG:  cpu time      0.4396: real time      0.4415
  RMM-DIIS:  cpu time      1.1269: real time      1.1315
    ORTHCH:  cpu time      0.1452: real time      0.1458
       DOS:  cpu time      0.0018: real time      0.0018
    CHARGE:  cpu time      0.1221: real time      0.1227
    MIXING:  cpu time      0.0023: real time      0.0023
    --------------------------------------------
      LOOP:  cpu time      1.9124: real time      1.9207

 eigenvalue-minimisations  :   658
 total energy-change (2. order) :-0.1376846E-03  (-0.1858799E-03)
 number of electron     518.9999648 magnetization 
 augmentation part      175.9368014 magnetization 

 eigenvalues of (default mixing * dielectric matrix)
  average eigenvalue GAMMA=   0.3781
  0.3781

  free energy =  -0.577407585074E+03  energy without entropy=  -0.577382586167E+03


--------------------------------------------------------------------------------------------------------




--------------------------------------- Iteration     14(   3)  ---------------------------------------


    POTLOK:  cpu time      0.0613: real time      0.0620
    SETDIJ:  cpu time      0.0092: real time      0.0092
    EDDIAG:  cpu time      0.4463: real time      0.4481
  RMM-DIIS:  cpu time      1.3499: real time      1.3551
    ORTHCH:  cpu time      0.1686: real time      0.1693
       DOS:  cpu time      0.0014: real time      0.0014
    CHARGE:  cpu time      0.1285: real time      0.1290
    MIXING:  cpu time      0.0019: real time      0.0019
    --------------------------------------------
      LOOP:  cpu time      2.1670: real time      2.1762

 eigenvalue-minimisations  :   682
 total energy-change (2. order) :-0.5829023E-03  (-0.8907110E-04)
 number of electron     518.9999648 magnetization 
 augmentation part      175.9692186 magnetization 

 eigenvalues of (default mixing * dielectric matrix)
  average eigenvalue GAMMA=   0.5917
  1.1123  0.0711

  free energy =  -0.577408167977E+03  energy without entropy=  -0.577383494845E+03


--------------------------------------------------------------------------------------------------------




--------------------------------------- Iteration     14(   4)  ---------------------------------------


    POTLOK:  cpu time      0.0595: real time      0.0602
    SETDIJ:  cpu time      0.0084: real time      0.0084
    EDDIAG:  cpu time      0.4461: real time      0.4481
  RMM-DIIS:  cpu time      1.4553: real time      1.4616
    ORTHCH:  cpu time      0.1269: real time      0.1276
       DOS:  cpu time      0.0016: real time      0.0016
    CHARGE:  cpu time      0.1215: real time      0.1221
    MIXING:  cpu time      0.0020: real time      0.0020
    --------------------------------------------
      LOOP:  cpu time      2.2213: real time      2.2317

 eigenvalue-minimisations  :   771
 total energy-change (2. order) :-0.2571445E-03  (-0.1373502E-03)
 number of electron     518.9999648 magnetization 
 augmentation part      175.9222298 magnetization 

 eigenvalues of (default mixing * dielectric matrix)
  average eigenvalue GAMMA=   0.5895
  1.5851  0.1262  0.0571

  free energy =  -0.577408425121E+03  energy without entropy=  -0.577383785751E+03


--------------------------------------------------------------------------------------------------------




--------------------------------------- Iteration     14(   5)  ---------------------------------------


    POTLOK:  cpu time      0.0615: real time      0.0623
    SETDIJ:  cpu time      0.0089: real time      0.0090
    EDDIAG:  cpu time      0.4720: real time      0.4744
  RMM-DIIS:  cpu time      1.1972: real time      1.2032
    ORTHCH:  cpu time      0.1014: real time      0.1019
       DOS:  cpu time      0.0015: real time      0.0015
    CHARGE:  cpu time      0.1200: real time      0.1205
    MIXING:  cpu time      0.0019: real time      0.0019
    --------------------------------------------
      LOOP:  cpu time      1.9644: real time      1.9747

 eigenvalue-minimisations  :   714
 total energy-change (2. order) : 0.6713648E-03  (-0.8381701E-04)
 number of electron     518.9999648 magnetization 
 augmentation part      175.9716710 magnetization 

 eigenvalues of (default mixing * dielectric matrix)
  average eigenvalue GAMMA=   0.5071
  1.6795  0.1970  0.0560  0.0960

  free energy =  -0.577407753756E+03  energy without entropy=  -0.577382932066E+03


--------------------------------------------------------------------------------------------------------




--------------------------------------- Iteration     14(   6)  ---------------------------------------


    POTLOK:  cpu time      0.0607: real time      0.0615
    SETDIJ:  cpu time      0.0085: real time      0.0085
    EDDIAG:  cpu time      0.4402: real time      0.4420
  RMM-DIIS:  cpu time      1.1184: real time      1.1230
    ORTHCH:  cpu time      0.1076: real time      0.1081
       DOS:  cpu time      0.0017: real time      0.0017
    CHARGE:  cpu time      0.1261: real time      0.1266
    MIXING:  cpu time      0.0021: real time      0.0021
    --------------------------------------------
      LOOP:  cpu time      1.8652: real time      1.8735

 eigenvalue-minimisations  :   674
 total energy-change (2. order) : 0.2332540E-03  (-0.3057219E-04)
 number of electron     518.9999648 magnetization 
 augmentation part      175.9368197 magnetization 

 eigenvalues of (default mixing * dielectric matrix)
  average eigenvalue GAMMA=   0.5141
  1.7618  0.5210  0.1516  0.0560  0.0802

  free energy =  -0.577407520502E+03  energy without entropy=  -0.577382666870E+03


--------------------------------------------------------------------------------------------------------




--------------------------------------- Iteration     14(   7)  ---------------------------------------


    POTLOK:  cpu time      0.0603: real time      0.0610
    SETDIJ:  cpu time      0.0085: real time      0.0085
    EDDIAG:  cpu time      0.4397: real time      0.5517
  RMM-DIIS:  cpu time      1.2239: real time      1.2285
    ORTHCH:  cpu time      0.1094: real time      0.1099
       DOS:  cpu time      0.0018: real time      0.0018
    CHARGE:  cpu time      0.1284: real time      0.1289
    MIXING:  cpu time      0.0022: real time      0.0022
    --------------------------------------------
      LOOP:  cpu time      1.9742: real time      2.0925

 eigenvalue-minimisations  :   716
 total energy-change (2. order) : 0.1927099E-04  (-0.2544882E-04)
 number of electron     518.9999648 magnetization 
 augmentation part      175.9588348 magnetization 

 eigenvalues of (default mixing * dielectric matrix)
  average eigenvalue GAMMA=   0.6028
  2.0479  1.1223  0.1864  0.1288  0.0560  0.0757

  free energy =  -0.577407501231E+03  energy without entropy=  -0.577382679034E+03


--------------------------------------------------------------------------------------------------------




--------------------------------------- Iteration     14(   8)  ---------------------------------------


    POTLOK:  cpu time      0.0737: real time      0.0745
    SETDIJ:  cpu time      0.0088: real time      0.0089
    EDDIAG:  cpu time      0.4359: real time      0.4375
  RMM-DIIS:  cpu time      1.1523: real time      1.1574
    ORTHCH:  cpu time      0.1087: real time      0.1092
       DOS:  cpu time      0.0017: real time      0.0017
    CHARGE:  cpu time      0.1281: real time      0.1286
    MIXING:  cpu time      0.0021: real time      0.0021
    --------------------------------------------
      LOOP:  cpu time      1.9114: real time      1.9200

 eigenvalue-minimisations  :   685
 total energy-change (2. order) : 0.1399552E-04  (-0.1698038E-04)
 number of electron     518.9999648 magnetization 
 augmentation part      175.9377353 magnetization 

 eigenvalues of (default mixing * dielectric matrix)
  average eigenvalue GAMMA=   0.5941
  2.2904  1.2281  0.2305  0.1645  0.1148  0.0560  0.0745

  free energy =  -0.577407487236E+03  energy without entropy=  -0.577382457520E+03


--------------------------------------------------------------------------------------------------------




--------------------------------------- Iteration     14(   9)  ---------------------------------------


    POTLOK:  cpu time      0.0745: real time      0.0754
    SETDIJ:  cpu time      0.0086: real time      0.0087
    EDDIAG:  cpu time      0.4369: real time      0.4403
  RMM-DIIS:  cpu time      0.9092: real time      0.9134
    ORTHCH:  cpu time      0.1324: real time      0.1331
       DOS:  cpu time      0.0016: real time      0.0016
    CHARGE:  cpu time      0.1301: real time      0.1307
    MIXING:  cpu time      0.0319: real time      0.0321
    --------------------------------------------
      LOOP:  cpu time      1.7252: real time      1.7352

 eigenvalue-minimisations  :   568
 total energy-change (2. order) : 0.3476757E-04  (-0.7218936E-05)
 number of electron     518.9999648 magnetization 
 augmentation part      175.9479913 magnetization 

 eigenvalues of (default mixing * dielectric matrix)
  average eigenvalue GAMMA=   0.5554
  2.3768  1.1965  0.3130  0.1910  0.1357  0.0560  0.0998  0.0741

  free energy =  -0.577407452468E+03  energy without entropy=  -0.577382535991E+03


--------------------------------------------------------------------------------------------------------




--------------------------------------- Iteration     14(  10)  ---------------------------------------


    POTLOK:  cpu time      0.0731: real time      0.0739
    SETDIJ:  cpu time      0.0087: real time      0.0088
    EDDIAG:  cpu time      0.4100: real time      0.4131
  RMM-DIIS:  cpu time      0.6721: real time      0.6752
    ORTHCH:  cpu time      0.1110: real time      0.1116
       DOS:  cpu time      0.0017: real time      0.0017
    CHARGE:  cpu time      0.1191: real time      0.1197
    MIXING:  cpu time      0.0023: real time      0.0023
    --------------------------------------------
      LOOP:  cpu time      1.3980: real time      1.4063

 eigenvalue-minimisations  :   395
 total energy-change (2. order) : 0.2087226E-04  (-0.2969411E-05)
 number of electron     518.9999648 magnetization 
 augmentation part      175.9466679 magnetization 

 eigenvalues of (default mixing * dielectric matrix)
  average eigenvalue GAMMA=   0.5270
  2.4174  1.0893  0.4824  0.2438  0.1651  0.1266  0.0560  0.0738  0.0888

  free energy =  -0.577407431596E+03  energy without entropy=  -0.577382538335E+03


--------------------------------------------------------------------------------------------------------




--------------------------------------- Iteration     14(  11)  ---------------------------------------


    POTLOK:  cpu time      0.0638: real time      0.0646
    SETDIJ:  cpu time      0.0086: real time      0.0087
    EDDIAG:  cpu time      0.5791: real time      0.5822
  RMM-DIIS:  cpu time      0.7520: real time      0.7547
    ORTHCH:  cpu time      0.1189: real time      0.1194
       DOS:  cpu time      0.0014: real time      0.0014
    --------------------------------------------
      LOOP:  cpu time      1.5238: real time      1.5308

 eigenvalue-minimisations  :   343
 total energy-change (2. order) : 0.4943744E-05  (-0.1402081E-05)
 number of electron     518.9999648 magnetization 
 augmentation part      175.9466679 magnetization 

  free energy =  -0.577407426652E+03  energy without entropy=  -0.577382470702E+03


--------------------------------------------------------------------------------------------------------




------------------------ aborting loop because EDIFF is reached ----------------------------------------





 total charge

# of ion       s       p       d       tot
------------------------------------------
    1        0.610   0.534   6.499   7.643
    2        0.610   0.531   6.507   7.648
    3        0.608   0.536   6.500   7.645
    4        0.605   0.532   6.507   7.645
    5        0.610   0.534   6.500   7.643
    6        0.609   0.534   6.496   7.639
    7        0.605   0.532   6.510   7.647
    8        0.608   0.536   6.499   7.643
    9        0.608   0.533   6.505   7.645
   10        0.605   0.536   6.502   7.643
   11        0.607   0.536   6.501   7.644
   12        0.607   0.536   6.502   7.644
   13        0.604   0.540   6.495   7.639
   14        0.605   0.536   6.503   7.644
   15        0.609   0.535   6.500   7.644
   16        0.609   0.535   6.499   7.643
   17        0.632   0.774   6.570   7.976
   18        0.632   0.774   6.570   7.976
   19        0.630   0.774   6.568   7.972
   20        0.629   0.770   6.560   7.959
   21        0.630   0.771   6.571   7.972
   22        0.630   0.771   6.571   7.971
   23        0.630   0.774   6.568   7.972
   24        0.631   0.772   6.572   7.975
   25        0.631   0.774   6.567   7.973
   26        0.631   0.774   6.567   7.973
   27        0.629   0.774   6.564   7.966
   28        0.632   0.774   6.564   7.970
   29        0.631   0.774   6.567   7.973
   30        0.631   0.774   6.568   7.973
   31        0.630   0.776   6.564   7.969
   32        0.632   0.774   6.564   7.970
   33        0.642   0.806   6.594   8.041
   34        0.647   0.817   6.589   8.053
   35        0.642   0.805   6.594   8.041
   36        0.639   0.794   6.582   8.015
   37        0.642   0.806   6.593   8.041
   38        0.642   0.799   6.596   8.036
   39        0.639   0.794   6.581   8.015
   40        0.642   0.805   6.594   8.041
   41        0.644   0.804   6.588   8.037
   42        0.643   0.796   6.594   8.033
   43        0.643   0.802   6.597   8.042
   44        0.643   0.802   6.597   8.042
   45        0.633   0.790   6.568   7.991
   46        0.643   0.796   6.594   8.032
   47        0.645   0.807   6.591   8.042
   48        0.645   0.807   6.591   8.043
   49        0.625   0.570   6.542   7.737
   50        0.625   0.570   6.544   7.739
   51        0.623   0.551   6.545   7.720
   52        0.623   0.561   6.575   7.760
   53        0.629   0.571   6.544   7.744
   54        0.629   0.571   6.546   7.746
   55        0.623   0.551   6.545   7.719
   56        0.626   0.552   6.538   7.716
   57        0.622   0.550   6.547   7.718
   58        0.598   0.657   6.551   7.806
   59        0.617   0.556   6.545   7.717
   60        0.622   0.552   6.545   7.720
   61        0.598   0.657   6.551   7.806
   62        0.622   0.550   6.548   7.719
   63        0.625   0.553   6.573   7.751
   64        0.622   0.552   6.546   7.720
   65        1.218   2.627   0.000   3.846
   66        0.633   0.082   0.000   0.716
   67        0.635   0.082   0.000   0.718
--------------------------------------------------
tot         42.498  45.675 419.326 507.500
 
    CHARGE:  cpu time      0.1296: real time      0.1301
    FORLOC:  cpu time      0.0157: real time      0.0158
    FORNL :  cpu time      0.5603: real time      0.5624
    STRESS:  cpu time      1.6520: real time      1.6583
    FORCOR:  cpu time      0.0619: real time      0.0622
    FORHAR:  cpu time      0.0260: real time      0.0262
    MIXING:  cpu time      0.0021: real time      0.0021
    OFIELD:  cpu time      0.0000: real time      0.0000

  FORCE on cell =-STRESS in cart. coord.  units (eV):
  Direction    XX          YY          ZZ          XY          YZ          ZX
  --------------------------------------------------------------------------------------
  Alpha Z  1067.80299  1067.80299  1067.80299
  Ewald   80372.18105 80401.78025************    -0.79687     1.19112     0.54552
  Hartree 87885.71339 87886.45301-86362.84970    -0.18930     0.53822     0.11198
  E(xc)   -2442.56986 -2442.03942 -2432.87849    -0.00421     0.06567     0.00213
  Local  ************************181896.60731     0.80661    -0.70384    -0.53741
  n-local   693.91633   694.29263   587.28915     0.00809    -0.72617    -0.00302
  augment  2920.27341  2918.52102  2845.48167    -0.00399    -0.25560     0.00237
  Kinetic  6147.33793  6126.31892  6053.76431     0.18462    -0.80780    -0.12864
  Fock        0.00000     0.00000     0.00000     0.00000     0.00000     0.00000
  -------------------------------------------------------------------------------------
  Total     -63.04578   -65.96890   -53.46170     0.00496    -0.69840    -0.00706
  in kB     -56.21399   -58.82036   -47.66847     0.00442    -0.62272    -0.00630
  external pressure =      -54.23 kB  Pullay stress =        0.00 kB



--------------------------------------------------------------------------------------------------------



  FREE ENERGIE OF THE ION-ELECTRON SYSTEM (eV)
  ---------------------------------------------------
  free  energy   TOTEN  =      -577.40742665 eV

  energy  without entropy=     -577.38247070  energy(sigma->0) =     -577.39494868
 
 d Force = 0.2377829E-02[ 0.398E-03, 0.436E-02]  d Energy = 0.2387909E-02-0.101E-04
 d Force = 0.3132290E+01[ 0.313E+01, 0.313E+01]  d Ewald  = 0.3132336E+01-0.458E-04


--------------------------------------------------------------------------------------------------------


    POTLOK:  cpu time      0.0634: real time      0.0637


--------------------------------------------------------------------------------------------------------


 Finite differences progress:
  Degree of freedom:   7/  9
  Displacement:        1/  2
  Total:              13/ 18
  LATTYP: Found a hexagonal cell.
 ALAT       =    10.9034004211
 C/A-ratio  =     1.6006841223
  
  Lattice vectors:
  
 A1 = (  10.9034004211,   0.0000000000,   0.0000000000)
 A2 = (  -5.4517002106,   9.4426217523,   0.0000000000)
 A3 = (   0.0000000000,   0.0000000000,  17.4528999329)


Analysis of symmetry for initial positions (statically):
=====================================================================
 Subroutine PRICEL returns:
 Original cell was already a primitive cell.
 

 Routine SETGRP: Setting up the symmetry group for a 
 hexagonal supercell.


 Subroutine GETGRP returns: Found  1 space group operations
 (whereof  1 operations were pure point group operations)
 out of a pool of 24 trial point group operations.


The static configuration has the point symmetry C_1 .


Analysis of symmetry for dynamics (positions and initial velocities):
=====================================================================
 Subroutine PRICEL returns:
 Original cell was already a primitive cell.
 

 Routine SETGRP: Setting up the symmetry group for a 
 hexagonal supercell.


 Subroutine GETGRP returns: Found  1 space group operations
 (whereof  1 operations were pure point group operations)
 out of a pool of 24 trial point group operations.


The dynamic configuration has the point symmetry C_1 .


Analysis of constrained symmetry for selective dynamics:
=====================================================================
 Subroutine PRICEL returns:
 Original cell was already a primitive cell.
 

 Routine SETGRP: Setting up the symmetry group for a 
 hexagonal supercell.


 Subroutine GETGRP returns: Found  1 space group operations
 (whereof  1 operations were pure point group operations)
 out of a pool of 24 trial point group operations.


The constrained configuration has the point symmetry C_1 .


 Subroutine INISYM returns: Found  1 space group operations
 (whereof  1 operations are pure point group operations),
 and found     1 'primitive' translations

 
 KPOINTS: Kpoints                                 

Automatic generation of k-mesh.
 Grid dimensions read from file:
 generate k-points for:    1    1    1

 Generating k-lattice:

  Cartesian coordinates                     Fractional coordinates (reciprocal lattice)
     0.091714508  0.052951396  0.000000000     1.000000000  0.000000000  0.000000000
     0.000000000  0.105902791  0.000000000     0.000000000  1.000000000  0.000000000
     0.000000000  0.000000000  0.057297068     0.000000000  0.000000000  1.000000000

  Length of vectors
     0.105902791  0.105902791  0.057297068

  Shift w.r.t. Gamma in fractional coordinates (k-lattice)
     0.000000000  0.000000000  0.000000000

 
 Subroutine IBZKPT returns following result:
 ===========================================
 
 Found      1 irreducible k-points:
 
 Following reciprocal coordinates:
            Coordinates               Weight
  0.000000  0.000000  0.000000      1.000000
 
 Following cartesian coordinates:
            Coordinates               Weight
  0.000000  0.000000  0.000000      1.000000
 
    WAVPRE:  cpu time      0.0578: real time      0.0982
    FEWALD:  cpu time      0.0014: real time      0.0014
    ORTHCH:  cpu time      0.4392: real time      3.4743
     LOOP+:  cpu time     24.4561: real time     28.8916


--------------------------------------- Ionic step       15  -------------------------------------------




--------------------------------------- Iteration     15(   1)  ---------------------------------------


    POTLOK:  cpu time      0.0649: real time      0.0658
    SETDIJ:  cpu time      0.0086: real time      0.0086
     EDDAV:  cpu time      2.5171: real time      3.6839
       DOS:  cpu time      0.0007: real time      0.0007
    CHARGE:  cpu time      0.1451: real time      0.1456
    MIXING:  cpu time      0.0019: real time      0.0019
    --------------------------------------------
      LOOP:  cpu time      2.7382: real time      3.9065

 eigenvalue-minimisations  :   640
 total energy-change (2. order) : 0.4327959E-03  (-0.2960782E-01)
 number of electron     518.9999648 magnetization 
 augmentation part      175.9482757 magnetization 

  free energy =  -0.577406998800E+03  energy without entropy=  -0.577382105740E+03


--------------------------------------------------------------------------------------------------------




--------------------------------------- Iteration     15(   2)  ---------------------------------------


    POTLOK:  cpu time      0.0649: real time      0.0655
    SETDIJ:  cpu time      0.0094: real time      0.0094
    EDDIAG:  cpu time      0.5494: real time      0.5516
  RMM-DIIS:  cpu time      1.1953: real time      1.2002
    ORTHCH:  cpu time      0.1273: real time      0.1279
       DOS:  cpu time      0.0016: real time      0.0016
    CHARGE:  cpu time      0.1208: real time      0.1214
    MIXING:  cpu time      0.0019: real time      0.0019
    --------------------------------------------
      LOOP:  cpu time      2.0706: real time      2.0795

 eigenvalue-minimisations  :   673
 total energy-change (2. order) :-0.4296097E-03  (-0.1755389E-03)
 number of electron     518.9999648 magnetization 
 augmentation part      175.9410447 magnetization 

 eigenvalues of (default mixing * dielectric matrix)
  average eigenvalue GAMMA=   0.3706
  0.3706

  free energy =  -0.577407428410E+03  energy without entropy=  -0.577382460624E+03


--------------------------------------------------------------------------------------------------------




--------------------------------------- Iteration     15(   3)  ---------------------------------------


    POTLOK:  cpu time      0.0693: real time      0.0699
    SETDIJ:  cpu time      0.0087: real time      0.0088
    EDDIAG:  cpu time      0.6063: real time      0.6092
  RMM-DIIS:  cpu time      1.1090: real time      1.1138
    ORTHCH:  cpu time      0.1292: real time      0.1298
       DOS:  cpu time      0.0014: real time      0.0014
    CHARGE:  cpu time      0.1169: real time      0.1175
    MIXING:  cpu time      0.0019: real time      0.0019
    --------------------------------------------
      LOOP:  cpu time      2.0427: real time      2.0523

 eigenvalue-minimisations  :   669
 total energy-change (2. order) :-0.2915258E-03  (-0.9452941E-04)
 number of electron     518.9999648 magnetization 
 augmentation part      175.9553343 magnetization 

 eigenvalues of (default mixing * dielectric matrix)
  average eigenvalue GAMMA=   1.0257
  1.9521  0.0994

  free energy =  -0.577407719936E+03  energy without entropy=  -0.577383174212E+03


--------------------------------------------------------------------------------------------------------




--------------------------------------- Iteration     15(   4)  ---------------------------------------


    POTLOK:  cpu time      0.0589: real time      0.0596
    SETDIJ:  cpu time      0.0085: real time      0.0085
    EDDIAG:  cpu time      0.4671: real time      0.4693
  RMM-DIIS:  cpu time      1.3864: real time      1.3929
    ORTHCH:  cpu time      0.1875: real time      0.1884
       DOS:  cpu time      0.0017: real time      0.0017
    CHARGE:  cpu time      0.1241: real time      0.1247
    MIXING:  cpu time      0.0021: real time      0.0021
    --------------------------------------------
      LOOP:  cpu time      2.2362: real time      2.2471

 eigenvalue-minimisations  :   784
 total energy-change (2. order) :-0.6025251E-03  (-0.1630641E-03)
 number of electron     518.9999648 magnetization 
 augmentation part      175.9455581 magnetization 

 eigenvalues of (default mixing * dielectric matrix)
  average eigenvalue GAMMA=   0.8981
  2.4424  0.1604  0.0915

  free energy =  -0.577408322461E+03  energy without entropy=  -0.577383690664E+03


--------------------------------------------------------------------------------------------------------




--------------------------------------- Iteration     15(   5)  ---------------------------------------


    POTLOK:  cpu time      0.0624: real time      0.0632
    SETDIJ:  cpu time      0.0087: real time      0.0088
    EDDIAG:  cpu time      0.4415: real time      0.4440
  RMM-DIIS:  cpu time      1.2234: real time      1.2296
    ORTHCH:  cpu time      0.1810: real time      0.1817
       DOS:  cpu time      0.0016: real time      0.0016
    CHARGE:  cpu time      0.1287: real time      0.1292
    MIXING:  cpu time      0.0023: real time      0.0023
    --------------------------------------------
      LOOP:  cpu time      2.0497: real time      2.0604

 eigenvalue-minimisations  :   695
 total energy-change (2. order) : 0.6224606E-03  (-0.8972506E-04)
 number of electron     518.9999648 magnetization 
 augmentation part      175.9524899 magnetization 

 eigenvalues of (default mixing * dielectric matrix)
  average eigenvalue GAMMA=   0.7330
  2.5045  0.2230  0.1212  0.0835

  free energy =  -0.577407700000E+03  energy without entropy=  -0.577382826957E+03


--------------------------------------------------------------------------------------------------------




--------------------------------------- Iteration     15(   6)  ---------------------------------------


    POTLOK:  cpu time      0.0622: real time      0.0629
    SETDIJ:  cpu time      0.0086: real time      0.0087
    EDDIAG:  cpu time      0.4458: real time      0.4476
  RMM-DIIS:  cpu time      1.1616: real time      1.1657
    ORTHCH:  cpu time      0.1065: real time      0.1069
       DOS:  cpu time      0.0016: real time      0.0016
    CHARGE:  cpu time      0.1261: real time      0.1265
    MIXING:  cpu time      0.0021: real time      0.0021
    --------------------------------------------
      LOOP:  cpu time      1.9145: real time      1.9220

 eigenvalue-minimisations  :   675
 total energy-change (2. order) : 0.2200863E-03  (-0.2536046E-04)
 number of electron     518.9999648 magnetization 
 augmentation part      175.9454584 magnetization 

 eigenvalues of (default mixing * dielectric matrix)
  average eigenvalue GAMMA=   0.6291
  2.5286  0.2921  0.1509  0.1017  0.0725

  free energy =  -0.577407479914E+03  energy without entropy=  -0.577382652819E+03


--------------------------------------------------------------------------------------------------------




--------------------------------------- Iteration     15(   7)  ---------------------------------------


    POTLOK:  cpu time      0.1011: real time      0.1020
    SETDIJ:  cpu time      0.0087: real time      0.0087
    EDDIAG:  cpu time      0.4963: real time      0.4985
  RMM-DIIS:  cpu time      1.0858: real time      1.0904
    ORTHCH:  cpu time      0.1066: real time      0.1086
       DOS:  cpu time      0.0016: real time      0.0015
    CHARGE:  cpu time      0.1177: real time      0.1183
    MIXING:  cpu time      0.0021: real time      0.0021
    --------------------------------------------
      LOOP:  cpu time      1.9198: real time      1.9302

 eigenvalue-minimisations  :   629
 total energy-change (2. order) : 0.7797086E-04  (-0.1122283E-04)
 number of electron     518.9999648 magnetization 
 augmentation part      175.9531136 magnetization 

 eigenvalues of (default mixing * dielectric matrix)
  average eigenvalue GAMMA=   0.5933
  2.5511  0.5276  0.2032  0.1323  0.0900  0.0554

  free energy =  -0.577407401943E+03  energy without entropy=  -0.577382511017E+03


--------------------------------------------------------------------------------------------------------




--------------------------------------- Iteration     15(   8)  ---------------------------------------


    POTLOK:  cpu time      0.0608: real time      0.0616
    SETDIJ:  cpu time      0.0084: real time      0.0084
    EDDIAG:  cpu time      0.4212: real time      0.4234
  RMM-DIIS:  cpu time      0.8663: real time      0.8710
    ORTHCH:  cpu time      0.1246: real time      0.1252
       DOS:  cpu time      0.0015: real time      0.0015
    --------------------------------------------
      LOOP:  cpu time      1.4828: real time      1.4911

 eigenvalue-minimisations  :   459
 total energy-change (2. order) : 0.9418909E-05  (-0.3889219E-05)
 number of electron     518.9999648 magnetization 
 augmentation part      175.9531136 magnetization 

  free energy =  -0.577407392524E+03  energy without entropy=  -0.577382427987E+03


--------------------------------------------------------------------------------------------------------




------------------------ aborting loop because EDIFF is reached ----------------------------------------





 total charge

# of ion       s       p       d       tot
------------------------------------------
    1        0.610   0.534   6.499   7.643
    2        0.610   0.531   6.505   7.646
    3        0.608   0.536   6.498   7.642
    4        0.606   0.532   6.507   7.645
    5        0.610   0.534   6.498   7.642
    6        0.609   0.534   6.494   7.638
    7        0.605   0.532   6.507   7.645
    8        0.608   0.536   6.498   7.642
    9        0.608   0.533   6.505   7.645
   10        0.605   0.536   6.504   7.646
   11        0.607   0.536   6.501   7.644
   12        0.607   0.536   6.502   7.645
   13        0.604   0.540   6.495   7.639
   14        0.605   0.536   6.501   7.642
   15        0.609   0.535   6.499   7.643
   16        0.609   0.535   6.498   7.642
   17        0.632   0.774   6.570   7.976
   18        0.632   0.774   6.570   7.976
   19        0.630   0.774   6.568   7.972
   20        0.629   0.770   6.561   7.960
   21        0.630   0.771   6.572   7.972
   22        0.630   0.771   6.571   7.972
   23        0.630   0.774   6.568   7.972
   24        0.631   0.772   6.572   7.975
   25        0.631   0.774   6.568   7.973
   26        0.631   0.774   6.568   7.974
   27        0.629   0.774   6.564   7.967
   28        0.632   0.774   6.565   7.971
   29        0.631   0.774   6.567   7.973
   30        0.631   0.774   6.568   7.973
   31        0.630   0.776   6.564   7.969
   32        0.632   0.774   6.564   7.970
   33        0.642   0.806   6.594   8.041
   34        0.647   0.817   6.589   8.053
   35        0.642   0.805   6.594   8.041
   36        0.639   0.794   6.582   8.015
   37        0.642   0.806   6.594   8.041
   38        0.642   0.799   6.596   8.037
   39        0.639   0.794   6.582   8.015
   40        0.642   0.805   6.594   8.041
   41        0.644   0.805   6.589   8.037
   42        0.643   0.796   6.595   8.034
   43        0.643   0.802   6.597   8.042
   44        0.643   0.802   6.598   8.043
   45        0.633   0.790   6.568   7.991
   46        0.643   0.796   6.594   8.033
   47        0.645   0.807   6.591   8.043
   48        0.645   0.807   6.591   8.042
   49        0.625   0.570   6.542   7.736
   50        0.625   0.570   6.542   7.737
   51        0.623   0.552   6.545   7.720
   52        0.623   0.561   6.574   7.758
   53        0.629   0.571   6.544   7.743
   54        0.629   0.571   6.544   7.744
   55        0.623   0.551   6.545   7.720
   56        0.626   0.552   6.536   7.714
   57        0.622   0.550   6.548   7.720
   58        0.598   0.657   6.550   7.806
   59        0.617   0.556   6.545   7.718
   60        0.623   0.553   6.546   7.721
   61        0.598   0.657   6.551   7.806
   62        0.622   0.550   6.547   7.719
   63        0.625   0.553   6.571   7.749
   64        0.623   0.552   6.544   7.719
   65        1.218   2.628   0.000   3.846
   66        0.633   0.082   0.000   0.716
   67        0.635   0.082   0.000   0.718
--------------------------------------------------
tot         42.500  45.680 419.313 507.493
 
    CHARGE:  cpu time      0.1194: real time      0.1199
    FORLOC:  cpu time      0.0159: real time      0.0160
    FORNL :  cpu time      0.5005: real time      0.5030
    STRESS:  cpu time      1.4565: real time      1.4634
    FORCOR:  cpu time      0.0587: real time      0.0590
    FORHAR:  cpu time      0.0249: real time      0.0251
    MIXING:  cpu time      0.0017: real time      0.0017
    OFIELD:  cpu time      0.0000: real time      0.0000

  FORCE on cell =-STRESS in cart. coord.  units (eV):
  Direction    XX          YY          ZZ          XY          YZ          ZX
  --------------------------------------------------------------------------------------
  Alpha Z  1067.80299  1067.80299  1067.80299
  Ewald   80372.18471 80401.77647************     0.96274     1.19360    -0.60059
  Hartree 87885.99913 87886.61654-86363.12805     0.23250     0.55849    -0.13837
  E(xc)   -2442.55522 -2442.02573 -2432.93669     0.00400     0.06303    -0.00088
  Local  ************************181896.01194    -1.00826    -0.75843     0.63236
  n-local   694.00484   694.38879   587.57190    -0.00147    -0.72058     0.00053
  augment  2920.08855  2918.32224  2845.50994     0.00065    -0.24744    -0.00970
  Kinetic  6147.05587  6125.91763  6054.00170    -0.23752    -0.79195     0.13760
  Fock        0.00000     0.00000     0.00000     0.00000     0.00000     0.00000
  -------------------------------------------------------------------------------------
  Total     -63.14088   -66.23188   -53.84702    -0.04735    -0.70328     0.02095
  in kB     -56.29879   -59.05485   -48.01203    -0.04222    -0.62708     0.01868
  external pressure =      -54.46 kB  Pullay stress =        0.00 kB



--------------------------------------------------------------------------------------------------------



  FREE ENERGIE OF THE ION-ELECTRON SYSTEM (eV)
  ---------------------------------------------------
  free  energy   TOTEN  =      -577.40739252 eV

  energy  without entropy=     -577.38242799  energy(sigma->0) =     -577.39491026
 
 d Force =-0.4914507E-04[-0.776E-03, 0.677E-03]  d Energy =-0.3412815E-04-0.150E-04
 d Force = 0.1915218E-02[ 0.330E-01,-0.292E-01]  d Ewald  = 0.1916405E-02-0.119E-05


--------------------------------------------------------------------------------------------------------


    POTLOK:  cpu time      0.0968: real time      0.0974


--------------------------------------------------------------------------------------------------------


 Finite differences progress:
  Degree of freedom:   7/  9
  Displacement:        2/  2
  Total:              14/ 18
  LATTYP: Found a hexagonal cell.
 ALAT       =    10.9034004211
 C/A-ratio  =     1.6006841223
  
  Lattice vectors:
  
 A1 = (  10.9034004211,   0.0000000000,   0.0000000000)
 A2 = (  -5.4517002106,   9.4426217523,   0.0000000000)
 A3 = (   0.0000000000,   0.0000000000,  17.4528999329)


Analysis of symmetry for initial positions (statically):
=====================================================================
 Subroutine PRICEL returns:
 Original cell was already a primitive cell.
 

 Routine SETGRP: Setting up the symmetry group for a 
 hexagonal supercell.


 Subroutine GETGRP returns: Found  1 space group operations
 (whereof  1 operations were pure point group operations)
 out of a pool of 24 trial point group operations.


The static configuration has the point symmetry C_1 .


Analysis of symmetry for dynamics (positions and initial velocities):
=====================================================================
 Subroutine PRICEL returns:
 Original cell was already a primitive cell.
 

 Routine SETGRP: Setting up the symmetry group for a 
 hexagonal supercell.


 Subroutine GETGRP returns: Found  1 space group operations
 (whereof  1 operations were pure point group operations)
 out of a pool of 24 trial point group operations.


The dynamic configuration has the point symmetry C_1 .


Analysis of constrained symmetry for selective dynamics:
=====================================================================
 Subroutine PRICEL returns:
 Original cell was already a primitive cell.
 

 Routine SETGRP: Setting up the symmetry group for a 
 hexagonal supercell.


 Subroutine GETGRP returns: Found  1 space group operations
 (whereof  1 operations were pure point group operations)
 out of a pool of 24 trial point group operations.


The constrained configuration has the point symmetry C_1 .


 Subroutine INISYM returns: Found  1 space group operations
 (whereof  1 operations are pure point group operations),
 and found     1 'primitive' translations

 
 KPOINTS: Kpoints                                 

Automatic generation of k-mesh.
 Grid dimensions read from file:
 generate k-points for:    1    1    1

 Generating k-lattice:

  Cartesian coordinates                     Fractional coordinates (reciprocal lattice)
     0.091714508  0.052951396  0.000000000     1.000000000  0.000000000  0.000000000
     0.000000000  0.105902791  0.000000000     0.000000000  1.000000000  0.000000000
     0.000000000  0.000000000  0.057297068     0.000000000  0.000000000  1.000000000

  Length of vectors
     0.105902791  0.105902791  0.057297068

  Shift w.r.t. Gamma in fractional coordinates (k-lattice)
     0.000000000  0.000000000  0.000000000

 
 Subroutine IBZKPT returns following result:
 ===========================================
 
 Found      1 irreducible k-points:
 
 Following reciprocal coordinates:
            Coordinates               Weight
  0.000000  0.000000  0.000000      1.000000
 
 Following cartesian coordinates:
            Coordinates               Weight
  0.000000  0.000000  0.000000      1.000000
 
    WAVPRE:  cpu time      0.0581: real time      0.0844
    FEWALD:  cpu time      0.0014: real time      0.0014
    ORTHCH:  cpu time      0.3969: real time      3.4479
     LOOP+:  cpu time     19.2217: real time     23.5488


--------------------------------------- Ionic step       16  -------------------------------------------




--------------------------------------- Iteration     16(   1)  ---------------------------------------


    POTLOK:  cpu time      0.0685: real time      0.0692
    SETDIJ:  cpu time      0.0089: real time      0.0089
     EDDAV:  cpu time      2.7362: real time      3.8216
       DOS:  cpu time      0.0010: real time      0.0010
    CHARGE:  cpu time      0.1262: real time      0.1268
    MIXING:  cpu time      0.0089: real time      0.0089
    --------------------------------------------
      LOOP:  cpu time      2.9498: real time      4.0366

 eigenvalue-minimisations  :   640
 total energy-change (2. order) : 0.3515408E-02  (-0.1629174E-01)
 number of electron     518.9999649 magnetization 
 augmentation part      175.9492257 magnetization 

  free energy =  -0.577403886535E+03  energy without entropy=  -0.577378919603E+03


--------------------------------------------------------------------------------------------------------




--------------------------------------- Iteration     16(   2)  ---------------------------------------


    POTLOK:  cpu time      0.0704: real time      0.0713
    SETDIJ:  cpu time      0.0115: real time      0.0116
    EDDIAG:  cpu time      0.4559: real time      0.4581
  RMM-DIIS:  cpu time      1.1029: real time      1.1082
    ORTHCH:  cpu time      0.1070: real time      0.1076
       DOS:  cpu time      0.0014: real time      0.0014
    CHARGE:  cpu time      0.1158: real time      0.1163
    MIXING:  cpu time      0.0018: real time      0.0018
    --------------------------------------------
      LOOP:  cpu time      1.8666: real time      1.8762

 eigenvalue-minimisations  :   671
 total energy-change (2. order) :-0.3295907E-03  (-0.3231712E-03)
 number of electron     518.9999648 magnetization 
 augmentation part      175.9305504 magnetization 

 eigenvalues of (default mixing * dielectric matrix)
  average eigenvalue GAMMA=   0.2734
  0.2734

  free energy =  -0.577404216126E+03  energy without entropy=  -0.577379480846E+03


--------------------------------------------------------------------------------------------------------




--------------------------------------- Iteration     16(   3)  ---------------------------------------


    POTLOK:  cpu time      0.0668: real time      0.0713
    SETDIJ:  cpu time      0.0082: real time      0.0083
    EDDIAG:  cpu time      0.4748: real time      0.4771
  RMM-DIIS:  cpu time      1.0742: real time      1.0792
    ORTHCH:  cpu time      0.1417: real time      0.1424
       DOS:  cpu time      0.0015: real time      0.0015
    CHARGE:  cpu time      0.1121: real time      0.1126
    MIXING:  cpu time      0.0020: real time      0.0020
    --------------------------------------------
      LOOP:  cpu time      1.8814: real time      1.8945

 eigenvalue-minimisations  :   683
 total energy-change (2. order) :-0.1849821E-03  (-0.1476878E-03)
 number of electron     518.9999649 magnetization 
 augmentation part      175.9730479 magnetization 

 eigenvalues of (default mixing * dielectric matrix)
  average eigenvalue GAMMA=   0.5807
  1.0764  0.0851

  free energy =  -0.577404401108E+03  energy without entropy=  -0.577379742833E+03


--------------------------------------------------------------------------------------------------------




--------------------------------------- Iteration     16(   4)  ---------------------------------------


    POTLOK:  cpu time      0.0670: real time      0.0679
    SETDIJ:  cpu time      0.0085: real time      0.0085
    EDDIAG:  cpu time      0.5144: real time      0.5170
  RMM-DIIS:  cpu time      1.1734: real time      1.1785
    ORTHCH:  cpu time      0.1137: real time      0.1142
       DOS:  cpu time      0.0016: real time      0.0017
    CHARGE:  cpu time      0.1257: real time      0.1262
    MIXING:  cpu time      0.0020: real time      0.0020
    --------------------------------------------
      LOOP:  cpu time      2.0064: real time      2.0160

 eigenvalue-minimisations  :   739
 total energy-change (2. order) :-0.1046027E-02  (-0.1741088E-03)
 number of electron     518.9999649 magnetization 
 augmentation part      175.9922359 magnetization 

 eigenvalues of (default mixing * dielectric matrix)
  average eigenvalue GAMMA=   0.4914
  1.3092  0.0968  0.0683

  free energy =  -0.577405447135E+03  energy without entropy=  -0.577380709585E+03


--------------------------------------------------------------------------------------------------------




--------------------------------------- Iteration     16(   5)  ---------------------------------------


    POTLOK:  cpu time      0.0582: real time      0.0639
    SETDIJ:  cpu time      0.0101: real time      0.0102
    EDDIAG:  cpu time      0.4616: real time      0.4636
  RMM-DIIS:  cpu time      1.1225: real time      1.1273
    ORTHCH:  cpu time      0.1266: real time      0.1273
       DOS:  cpu time      0.0018: real time      0.0018
    CHARGE:  cpu time      0.1369: real time      0.1377
    MIXING:  cpu time      0.0019: real time      0.0019
    --------------------------------------------
      LOOP:  cpu time      1.9197: real time      1.9338

 eigenvalue-minimisations  :   674
 total energy-change (2. order) : 0.1338692E-02  (-0.7492157E-04)
 number of electron     518.9999649 magnetization 
 augmentation part      175.9082446 magnetization 

 eigenvalues of (default mixing * dielectric matrix)
  average eigenvalue GAMMA=   0.4522
  1.4511  0.2123  0.0895  0.0561

  free energy =  -0.577404108444E+03  energy without entropy=  -0.577379013765E+03


--------------------------------------------------------------------------------------------------------




--------------------------------------- Iteration     16(   6)  ---------------------------------------


    POTLOK:  cpu time      0.0658: real time      0.0666
    SETDIJ:  cpu time      0.0090: real time      0.0091
    EDDIAG:  cpu time      0.4393: real time      0.4419
  RMM-DIIS:  cpu time      1.1872: real time      1.1939
    ORTHCH:  cpu time      0.1114: real time      0.1120
       DOS:  cpu time      0.0019: real time      0.0019
    CHARGE:  cpu time      0.1275: real time      0.1282
    MIXING:  cpu time      0.0021: real time      0.0021
    --------------------------------------------
      LOOP:  cpu time      1.9443: real time      1.9557

 eigenvalue-minimisations  :   696
 total energy-change (2. order) : 0.3788395E-03  (-0.5639435E-04)
 number of electron     518.9999649 magnetization 
 augmentation part      175.9617756 magnetization 

 eigenvalues of (default mixing * dielectric matrix)
  average eigenvalue GAMMA=   0.4841
  1.5705  0.5573  0.1522  0.0842  0.0562

  free energy =  -0.577403729604E+03  energy without entropy=  -0.577378940959E+03


--------------------------------------------------------------------------------------------------------




--------------------------------------- Iteration     16(   7)  ---------------------------------------


    POTLOK:  cpu time      0.0724: real time      0.0733
    SETDIJ:  cpu time      0.0089: real time      0.0090
    EDDIAG:  cpu time      0.4572: real time      0.4600
  RMM-DIIS:  cpu time      1.1874: real time      1.1931
    ORTHCH:  cpu time      0.1117: real time      0.1123
       DOS:  cpu time      0.0017: real time      0.0017
    CHARGE:  cpu time      0.1189: real time      0.1196
    MIXING:  cpu time      0.0023: real time      0.0023
    --------------------------------------------
      LOOP:  cpu time      1.9605: real time      1.9713

 eigenvalue-minimisations  :   690
 total energy-change (2. order) : 0.3108840E-04  (-0.3460522E-04)
 number of electron     518.9999649 magnetization 
 augmentation part      175.9409899 magnetization 

 eigenvalues of (default mixing * dielectric matrix)
  average eigenvalue GAMMA=   0.5546
  1.8814  0.9768  0.2037  0.1266  0.0828  0.0560

  free energy =  -0.577403698516E+03  energy without entropy=  -0.577378794710E+03


--------------------------------------------------------------------------------------------------------




--------------------------------------- Iteration     16(   8)  ---------------------------------------


    POTLOK:  cpu time      0.0723: real time      0.0731
    SETDIJ:  cpu time      0.0085: real time      0.0086
    EDDIAG:  cpu time      0.4560: real time      0.4584
  RMM-DIIS:  cpu time      1.2304: real time      1.2357
    ORTHCH:  cpu time      0.1209: real time      0.1214
       DOS:  cpu time      0.0015: real time      0.0015
    CHARGE:  cpu time      0.1220: real time      0.1225
    MIXING:  cpu time      0.0022: real time      0.0022
    --------------------------------------------
      LOOP:  cpu time      2.0137: real time      2.0234

 eigenvalue-minimisations  :   697
 total energy-change (2. order) :-0.5695049E-04  (-0.2778226E-04)
 number of electron     518.9999649 magnetization 
 augmentation part      175.9545816 magnetization 

 eigenvalues of (default mixing * dielectric matrix)
  average eigenvalue GAMMA=   0.5746
  2.2522  1.1211  0.2574  0.1515  0.0561  0.0829  0.1008

  free energy =  -0.577403755466E+03  energy without entropy=  -0.577378867567E+03


--------------------------------------------------------------------------------------------------------




--------------------------------------- Iteration     16(   9)  ---------------------------------------


    POTLOK:  cpu time      0.0583: real time      0.0590
    SETDIJ:  cpu time      0.0091: real time      0.0091
    EDDIAG:  cpu time      0.4586: real time      0.4606
  RMM-DIIS:  cpu time      1.1450: real time      1.1497
    ORTHCH:  cpu time      0.1216: real time      0.1221
       DOS:  cpu time      0.0016: real time      0.0016
    CHARGE:  cpu time      0.1257: real time      0.1262
    MIXING:  cpu time      0.0023: real time      0.0023
    --------------------------------------------
      LOOP:  cpu time      1.9221: real time      1.9307

 eigenvalue-minimisations  :   643
 total energy-change (2. order) : 0.5956091E-04  (-0.1525534E-04)
 number of electron     518.9999649 magnetization 
 augmentation part      175.9498144 magnetization 

 eigenvalues of (default mixing * dielectric matrix)
  average eigenvalue GAMMA=   0.5390
  2.3545  1.1174  0.2760  0.2030  0.1350  0.0561  0.0809  0.0889

  free energy =  -0.577403695906E+03  energy without entropy=  -0.577378855053E+03


--------------------------------------------------------------------------------------------------------




--------------------------------------- Iteration     16(  10)  ---------------------------------------


    POTLOK:  cpu time      0.0597: real time      0.0604
    SETDIJ:  cpu time      0.0087: real time      0.0087
    EDDIAG:  cpu time      0.4439: real time      0.4456
  RMM-DIIS:  cpu time      0.8977: real time      0.9012
    ORTHCH:  cpu time      0.1152: real time      0.1158
       DOS:  cpu time      0.0016: real time      0.0016
    CHARGE:  cpu time      0.1184: real time      0.1189
    MIXING:  cpu time      0.0022: real time      0.0022
    --------------------------------------------
      LOOP:  cpu time      1.6473: real time      1.6544

 eigenvalue-minimisations  :   538
 total energy-change (2. order) : 0.5408814E-04  (-0.5730141E-05)
 number of electron     518.9999649 magnetization 
 augmentation part      175.9477110 magnetization 

 eigenvalues of (default mixing * dielectric matrix)
  average eigenvalue GAMMA=   0.5057
  2.3786  1.0617  0.3336  0.2845  0.1560  0.1207  0.0561  0.0833  0.0766

  free energy =  -0.577403641817E+03  energy without entropy=  -0.577378712936E+03


--------------------------------------------------------------------------------------------------------




--------------------------------------- Iteration     16(  11)  ---------------------------------------


    POTLOK:  cpu time      0.0681: real time      0.0721
    SETDIJ:  cpu time      0.0086: real time      0.0087
    EDDIAG:  cpu time      0.4127: real time      0.4150
  RMM-DIIS:  cpu time      0.6425: real time      0.6457
    ORTHCH:  cpu time      0.1107: real time      0.1113
       DOS:  cpu time      0.0016: real time      0.0016
    CHARGE:  cpu time      0.1279: real time      0.1285
    MIXING:  cpu time      0.0025: real time      0.0025
    --------------------------------------------
      LOOP:  cpu time      1.3747: real time      1.3855

 eigenvalue-minimisations  :   369
 total energy-change (2. order) : 0.1837479E-04  (-0.2534679E-05)
 number of electron     518.9999649 magnetization 
 augmentation part      175.9491097 magnetization 

 eigenvalues of (default mixing * dielectric matrix)
  average eigenvalue GAMMA=   0.4951
  2.3900  0.8102  0.8102  0.2933  0.1856  0.1420  0.0561  0.1084  0.0831  0.0726

  free energy =  -0.577403623443E+03  energy without entropy=  -0.577378734124E+03


--------------------------------------------------------------------------------------------------------




--------------------------------------- Iteration     16(  12)  ---------------------------------------


    POTLOK:  cpu time      0.0610: real time      0.0618
    SETDIJ:  cpu time      0.0107: real time      0.0108
    EDDIAG:  cpu time      0.4290: real time      0.4314
  RMM-DIIS:  cpu time      0.6848: real time      0.6883
    ORTHCH:  cpu time      0.1158: real time      0.1164
       DOS:  cpu time      0.0019: real time      0.0019
    --------------------------------------------
      LOOP:  cpu time      1.3032: real time      1.3105

 eigenvalue-minimisations  :   336
 total energy-change (2. order) : 0.9153315E-05  (-0.1396489E-05)
 number of electron     518.9999649 magnetization 
 augmentation part      175.9491097 magnetization 

  free energy =  -0.577403614289E+03  energy without entropy=  -0.577378670263E+03


--------------------------------------------------------------------------------------------------------




------------------------ aborting loop because EDIFF is reached ----------------------------------------





 total charge

# of ion       s       p       d       tot
------------------------------------------
    1        0.610   0.534   6.501   7.644
    2        0.610   0.531   6.505   7.646
    3        0.608   0.536   6.499   7.643
    4        0.605   0.532   6.508   7.646
    5        0.610   0.534   6.501   7.644
    6        0.609   0.534   6.496   7.639
    7        0.605   0.532   6.507   7.645
    8        0.608   0.536   6.499   7.643
    9        0.608   0.533   6.505   7.645
   10        0.605   0.536   6.502   7.644
   11        0.607   0.536   6.502   7.644
   12        0.607   0.536   6.501   7.644
   13        0.604   0.540   6.496   7.640
   14        0.605   0.536   6.503   7.644
   15        0.609   0.535   6.499   7.643
   16        0.609   0.535   6.499   7.643
   17        0.632   0.774   6.570   7.976
   18        0.632   0.774   6.569   7.975
   19        0.630   0.774   6.568   7.972
   20        0.629   0.770   6.560   7.959
   21        0.630   0.771   6.571   7.972
   22        0.630   0.771   6.571   7.972
   23        0.630   0.774   6.568   7.972
   24        0.631   0.772   6.572   7.974
   25        0.631   0.774   6.567   7.972
   26        0.631   0.774   6.567   7.973
   27        0.629   0.774   6.564   7.966
   28        0.632   0.774   6.564   7.970
   29        0.631   0.774   6.567   7.973
   30        0.631   0.774   6.568   7.973
   31        0.630   0.776   6.564   7.969
   32        0.632   0.774   6.564   7.970
   33        0.642   0.806   6.594   8.041
   34        0.647   0.817   6.589   8.053
   35        0.642   0.805   6.594   8.041
   36        0.639   0.794   6.581   8.015
   37        0.642   0.806   6.593   8.041
   38        0.642   0.799   6.596   8.036
   39        0.639   0.794   6.581   8.015
   40        0.642   0.805   6.594   8.041
   41        0.644   0.805   6.588   8.037
   42        0.643   0.796   6.594   8.033
   43        0.643   0.802   6.597   8.042
   44        0.643   0.802   6.597   8.042
   45        0.633   0.790   6.568   7.991
   46        0.643   0.796   6.594   8.033
   47        0.645   0.807   6.591   8.042
   48        0.645   0.807   6.591   8.042
   49        0.625   0.570   6.543   7.738
   50        0.625   0.570   6.542   7.737
   51        0.623   0.551   6.546   7.721
   52        0.623   0.561   6.574   7.758
   53        0.629   0.571   6.546   7.745
   54        0.629   0.571   6.544   7.744
   55        0.623   0.551   6.546   7.720
   56        0.626   0.552   6.538   7.716
   57        0.622   0.550   6.548   7.719
   58        0.598   0.657   6.551   7.807
   59        0.617   0.556   6.546   7.718
   60        0.622   0.552   6.546   7.721
   61        0.598   0.657   6.550   7.805
   62        0.622   0.550   6.547   7.719
   63        0.625   0.553   6.572   7.750
   64        0.623   0.552   6.547   7.721
   65        1.219   2.636   0.000   3.855
   66        0.634   0.082   0.000   0.716
   67        0.648   0.088   0.000   0.736
--------------------------------------------------
tot         42.513  45.689 419.324 507.526
 
    CHARGE:  cpu time      0.1250: real time      0.1256
    FORLOC:  cpu time      0.0263: real time      0.0264
    FORNL :  cpu time      0.5211: real time      0.5240
    STRESS:  cpu time      1.5756: real time      1.5847
    FORCOR:  cpu time      0.0621: real time      0.0624
    FORHAR:  cpu time      0.0263: real time      0.0264
    MIXING:  cpu time      0.0022: real time      0.0022
    OFIELD:  cpu time      0.0000: real time      0.0000

  FORCE on cell =-STRESS in cart. coord.  units (eV):
  Direction    XX          YY          ZZ          XY          YZ          ZX
  --------------------------------------------------------------------------------------
  Alpha Z  1067.80299  1067.80299  1067.80299
  Ewald   80372.20338 80401.76481************     0.08392     0.56609    -0.02883
  Hartree 87885.18161 87885.61976-86361.60505     0.03662     0.56839     0.01084
  E(xc)   -2442.60953 -2442.09059 -2432.92541    -0.00065     0.06198    -0.00021
  Local  ************************181894.54294    -0.11220    -0.43830     0.00936
  n-local   693.82118   694.15300   587.19656     0.00167    -0.67447     0.00235
  augment  2920.23732  2918.50654  2845.46147     0.00324    -0.24022    -0.00230
  Kinetic  6147.55141  6126.74338  6053.88322     0.00177    -0.78014     0.00733
  Fock        0.00000     0.00000     0.00000     0.00000     0.00000     0.00000
  -------------------------------------------------------------------------------------
  Total     -63.02808   -65.65269   -53.39835     0.01435    -0.93666    -0.00146
  in kB     -56.19821   -58.53842   -47.61198     0.01280    -0.83516    -0.00130
  external pressure =      -54.12 kB  Pullay stress =        0.00 kB



--------------------------------------------------------------------------------------------------------



  FREE ENERGIE OF THE ION-ELECTRON SYSTEM (eV)
  ---------------------------------------------------
  free  energy   TOTEN  =      -577.40361429 eV

  energy  without entropy=     -577.37867026  energy(sigma->0) =     -577.39114228
 
 d Force =-0.3785892E-02[-0.730E-02,-0.267E-03]  d Energy =-0.3778235E-02-0.766E-05
 d Force =-0.9325564E+00[-0.933E+00,-0.932E+00]  d Ewald  =-0.9326825E+00 0.126E-03


--------------------------------------------------------------------------------------------------------


    POTLOK:  cpu time      0.0631: real time      0.0634


--------------------------------------------------------------------------------------------------------


 Finite differences progress:
  Degree of freedom:   8/  9
  Displacement:        1/  2
  Total:              15/ 18
  LATTYP: Found a hexagonal cell.
 ALAT       =    10.9034004211
 C/A-ratio  =     1.6006841223
  
  Lattice vectors:
  
 A1 = (  10.9034004211,   0.0000000000,   0.0000000000)
 A2 = (  -5.4517002106,   9.4426217523,   0.0000000000)
 A3 = (   0.0000000000,   0.0000000000,  17.4528999329)


Analysis of symmetry for initial positions (statically):
=====================================================================
 Subroutine PRICEL returns:
 Original cell was already a primitive cell.
 

 Routine SETGRP: Setting up the symmetry group for a 
 hexagonal supercell.


 Subroutine GETGRP returns: Found  1 space group operations
 (whereof  1 operations were pure point group operations)
 out of a pool of 24 trial point group operations.


The static configuration has the point symmetry C_1 .


Analysis of symmetry for dynamics (positions and initial velocities):
=====================================================================
 Subroutine PRICEL returns:
 Original cell was already a primitive cell.
 

 Routine SETGRP: Setting up the symmetry group for a 
 hexagonal supercell.


 Subroutine GETGRP returns: Found  1 space group operations
 (whereof  1 operations were pure point group operations)
 out of a pool of 24 trial point group operations.


The dynamic configuration has the point symmetry C_1 .


Analysis of constrained symmetry for selective dynamics:
=====================================================================
 Subroutine PRICEL returns:
 Original cell was already a primitive cell.
 

 Routine SETGRP: Setting up the symmetry group for a 
 hexagonal supercell.


 Subroutine GETGRP returns: Found  1 space group operations
 (whereof  1 operations were pure point group operations)
 out of a pool of 24 trial point group operations.


The constrained configuration has the point symmetry C_1 .


 Subroutine INISYM returns: Found  1 space group operations
 (whereof  1 operations are pure point group operations),
 and found     1 'primitive' translations

 
 KPOINTS: Kpoints                                 

Automatic generation of k-mesh.
 Grid dimensions read from file:
 generate k-points for:    1    1    1

 Generating k-lattice:

  Cartesian coordinates                     Fractional coordinates (reciprocal lattice)
     0.091714508  0.052951396  0.000000000     1.000000000  0.000000000  0.000000000
     0.000000000  0.105902791  0.000000000     0.000000000  1.000000000  0.000000000
     0.000000000  0.000000000  0.057297068     0.000000000  0.000000000  1.000000000

  Length of vectors
     0.105902791  0.105902791  0.057297068

  Shift w.r.t. Gamma in fractional coordinates (k-lattice)
     0.000000000  0.000000000  0.000000000

 
 Subroutine IBZKPT returns following result:
 ===========================================
 
 Found      1 irreducible k-points:
 
 Following reciprocal coordinates:
            Coordinates               Weight
  0.000000  0.000000  0.000000      1.000000
 
 Following cartesian coordinates:
            Coordinates               Weight
  0.000000  0.000000  0.000000      1.000000
 
    WAVPRE:  cpu time      0.0576: real time      0.0768
    FEWALD:  cpu time      0.0013: real time      0.0013
    ORTHCH:  cpu time      0.3423: real time      3.6926
     LOOP+:  cpu time     25.6601: real time     30.2439


--------------------------------------- Ionic step       17  -------------------------------------------




--------------------------------------- Iteration     17(   1)  ---------------------------------------


    POTLOK:  cpu time      0.0687: real time      0.0696
    SETDIJ:  cpu time      0.0087: real time      0.0087
     EDDAV:  cpu time      2.7904: real time      3.9214
       DOS:  cpu time      0.0009: real time      0.0009
    CHARGE:  cpu time      0.1358: real time      0.1366
    MIXING:  cpu time      0.0034: real time      0.0034
    --------------------------------------------
      LOOP:  cpu time      3.0080: real time      4.1406

 eigenvalue-minimisations  :   640
 total energy-change (2. order) :-0.3060465E-02  (-0.3482458E-01)
 number of electron     518.9999648 magnetization 
 augmentation part      175.9500216 magnetization 

  free energy =  -0.577406683907E+03  energy without entropy=  -0.577381882325E+03


--------------------------------------------------------------------------------------------------------




--------------------------------------- Iteration     17(   2)  ---------------------------------------


    POTLOK:  cpu time      0.0693: real time      0.0702
    SETDIJ:  cpu time      0.0127: real time      0.0128
    EDDIAG:  cpu time      0.4506: real time      0.4532
  RMM-DIIS:  cpu time      1.1084: real time      1.1132
    ORTHCH:  cpu time      0.1103: real time      0.1108
       DOS:  cpu time      0.0016: real time      0.0016
    CHARGE:  cpu time      0.1259: real time      0.1263
    MIXING:  cpu time      0.0021: real time      0.0021
    --------------------------------------------
      LOOP:  cpu time      1.8808: real time      1.8902

 eigenvalue-minimisations  :   652
 total energy-change (2. order) : 0.1076625E-02  (-0.8284140E-03)
 number of electron     518.9999648 magnetization 
 augmentation part      175.9067486 magnetization 

 eigenvalues of (default mixing * dielectric matrix)
  average eigenvalue GAMMA=   0.4924
  0.4924

  free energy =  -0.577405607282E+03  energy without entropy=  -0.577380401539E+03


--------------------------------------------------------------------------------------------------------




--------------------------------------- Iteration     17(   3)  ---------------------------------------


    POTLOK:  cpu time      0.0613: real time      0.0622
    SETDIJ:  cpu time      0.0087: real time      0.0087
    EDDIAG:  cpu time      0.5355: real time      0.5379
  RMM-DIIS:  cpu time      1.1978: real time      1.2032
    ORTHCH:  cpu time      0.1199: real time      0.1204
       DOS:  cpu time      0.0017: real time      0.0017
    CHARGE:  cpu time      0.1261: real time      0.1267
    MIXING:  cpu time      0.0020: real time      0.0020
    --------------------------------------------
      LOOP:  cpu time      2.0531: real time      2.0628

 eigenvalue-minimisations  :   687
 total energy-change (2. order) :-0.5651312E-02  (-0.6075439E-03)
 number of electron     518.9999648 magnetization 
 augmentation part      176.0418372 magnetization 

 eigenvalues of (default mixing * dielectric matrix)
  average eigenvalue GAMMA=   0.6145
  1.1478  0.0813

  free energy =  -0.577411258595E+03  energy without entropy=  -0.577388781073E+03


--------------------------------------------------------------------------------------------------------




--------------------------------------- Iteration     17(   4)  ---------------------------------------


    POTLOK:  cpu time      0.0711: real time      0.0717
    SETDIJ:  cpu time      0.0090: real time      0.0090
    EDDIAG:  cpu time      0.4352: real time      0.4371
  RMM-DIIS:  cpu time      1.1837: real time      1.1889
    ORTHCH:  cpu time      0.1010: real time      0.1014
       DOS:  cpu time      0.0015: real time      0.0015
    CHARGE:  cpu time      0.1176: real time      0.1181
    MIXING:  cpu time      0.0019: real time      0.0019
    --------------------------------------------
      LOOP:  cpu time      1.9210: real time      1.9298

 eigenvalue-minimisations  :   691
 total energy-change (2. order) : 0.1050943E-02  (-0.4073148E-03)
 number of electron     518.9999648 magnetization 
 augmentation part      175.9357412 magnetization 

 eigenvalues of (default mixing * dielectric matrix)
  average eigenvalue GAMMA=   0.5072
  1.3388  0.1249  0.0581

  free energy =  -0.577410207652E+03  energy without entropy=  -0.577386708855E+03


--------------------------------------------------------------------------------------------------------




--------------------------------------- Iteration     17(   5)  ---------------------------------------


    POTLOK:  cpu time      0.0702: real time      0.0710
    SETDIJ:  cpu time      0.0081: real time      0.0082
    EDDIAG:  cpu time      0.4015: real time      0.4035
  RMM-DIIS:  cpu time      1.0669: real time      1.0719
    ORTHCH:  cpu time      0.1021: real time      0.1027
       DOS:  cpu time      0.0015: real time      0.0015
    CHARGE:  cpu time      0.1177: real time      0.1183
    MIXING:  cpu time      0.0019: real time      0.0019
    --------------------------------------------
      LOOP:  cpu time      1.7699: real time      1.7789

 eigenvalue-minimisations  :   668
 total energy-change (2. order) : 0.4416399E-02  (-0.2186999E-03)
 number of electron     518.9999648 magnetization 
 augmentation part      175.9598879 magnetization 

 eigenvalues of (default mixing * dielectric matrix)
  average eigenvalue GAMMA=   0.4555
  1.3529  0.3083  0.1045  0.0561

  free energy =  -0.577405791253E+03  energy without entropy=  -0.577381032044E+03


--------------------------------------------------------------------------------------------------------




--------------------------------------- Iteration     17(   6)  ---------------------------------------


    POTLOK:  cpu time      0.0686: real time      0.0692
    SETDIJ:  cpu time      0.0084: real time      0.0085
    EDDIAG:  cpu time      0.4039: real time      0.4060
  RMM-DIIS:  cpu time      1.1165: real time      1.1224
    ORTHCH:  cpu time      0.1117: real time      0.1123
       DOS:  cpu time      0.0017: real time      0.0017
    CHARGE:  cpu time      0.1204: real time      0.1211
    MIXING:  cpu time      0.0024: real time      0.0024
    --------------------------------------------
      LOOP:  cpu time      1.8335: real time      1.8436

 eigenvalue-minimisations  :   683
 total energy-change (2. order) : 0.3477253E-03  (-0.1064631E-03)
 number of electron     518.9999648 magnetization 
 augmentation part      175.9436211 magnetization 

 eigenvalues of (default mixing * dielectric matrix)
  average eigenvalue GAMMA=   0.5194
  1.3170  0.9757  0.1555  0.0926  0.0561

  free energy =  -0.577405443528E+03  energy without entropy=  -0.577380732427E+03


--------------------------------------------------------------------------------------------------------




--------------------------------------- Iteration     17(   7)  ---------------------------------------


    POTLOK:  cpu time      0.0764: real time      0.0772
    SETDIJ:  cpu time      0.0089: real time      0.0089
    EDDIAG:  cpu time      0.4468: real time      0.4916
  RMM-DIIS:  cpu time      1.3699: real time      1.3759
    ORTHCH:  cpu time      0.1180: real time      0.1185
       DOS:  cpu time      0.0017: real time      0.0017
    CHARGE:  cpu time      0.1225: real time      0.1230
    MIXING:  cpu time      0.0027: real time      0.0027
    --------------------------------------------
      LOOP:  cpu time      2.1467: real time      2.1995

 eigenvalue-minimisations  :   715
 total energy-change (2. order) :-0.2360103E-03  (-0.9058783E-04)
 number of electron     518.9999648 magnetization 
 augmentation part      175.9681239 magnetization 

 eigenvalues of (default mixing * dielectric matrix)
  average eigenvalue GAMMA=   0.5335
  1.4447  1.3178  0.1821  0.0560  0.1120  0.0883

  free energy =  -0.577405679538E+03  energy without entropy=  -0.577380881464E+03


--------------------------------------------------------------------------------------------------------




--------------------------------------- Iteration     17(   8)  ---------------------------------------


    POTLOK:  cpu time      0.1039: real time      0.1048
    SETDIJ:  cpu time      0.0093: real time      0.0093
    EDDIAG:  cpu time      0.4562: real time      0.4582
  RMM-DIIS:  cpu time      1.3155: real time      1.3210
    ORTHCH:  cpu time      0.1490: real time      0.1496
       DOS:  cpu time      0.0017: real time      0.0017
    CHARGE:  cpu time      0.1331: real time      0.1336
    MIXING:  cpu time      0.0026: real time      0.0026
    --------------------------------------------
      LOOP:  cpu time      2.1714: real time      2.1809

 eigenvalue-minimisations  :   685
 total energy-change (2. order) : 0.2361246E-03  (-0.5319911E-04)
 number of electron     518.9999648 magnetization 
 augmentation part      175.9150674 magnetization 

 eigenvalues of (default mixing * dielectric matrix)
  average eigenvalue GAMMA=   0.5614
  2.0096  1.1902  0.3293  0.1675  0.1012  0.0561  0.0761

  free energy =  -0.577405443414E+03  energy without entropy=  -0.577380442800E+03


--------------------------------------------------------------------------------------------------------




--------------------------------------- Iteration     17(   9)  ---------------------------------------


    POTLOK:  cpu time      0.0614: real time      0.0621
    SETDIJ:  cpu time      0.0092: real time      0.0093
    EDDIAG:  cpu time      0.5094: real time      0.5117
  RMM-DIIS:  cpu time      1.1946: real time      1.1996
    ORTHCH:  cpu time      0.1047: real time      0.1052
       DOS:  cpu time      0.0016: real time      0.0016
    CHARGE:  cpu time      0.1247: real time      0.1253
    MIXING:  cpu time      0.0022: real time      0.0022
    --------------------------------------------
      LOOP:  cpu time      2.0079: real time      2.0168

 eigenvalue-minimisations  :   685
 total energy-change (2. order) : 0.1591059E-03  (-0.4011181E-04)
 number of electron     518.9999648 magnetization 
 augmentation part      175.9503733 magnetization 

 eigenvalues of (default mixing * dielectric matrix)
  average eigenvalue GAMMA=   0.5498
  2.2338  0.9882  0.5800  0.2123  0.1535  0.0561  0.0994  0.0748

  free energy =  -0.577405284308E+03  energy without entropy=  -0.577380455732E+03


--------------------------------------------------------------------------------------------------------




--------------------------------------- Iteration     17(  10)  ---------------------------------------


    POTLOK:  cpu time      0.0718: real time      0.0726
    SETDIJ:  cpu time      0.0084: real time      0.0084
    EDDIAG:  cpu time      0.5932: real time      0.5960
  RMM-DIIS:  cpu time      1.0987: real time      1.1034
    ORTHCH:  cpu time      0.1032: real time      0.1037
       DOS:  cpu time      0.0016: real time      0.0016
    CHARGE:  cpu time      0.1216: real time      0.1221
    MIXING:  cpu time      0.0023: real time      0.0023
    --------------------------------------------
      LOOP:  cpu time      2.0006: real time      2.0101

 eigenvalue-minimisations  :   663
 total energy-change (2. order) : 0.7422187E-04  (-0.1691019E-04)
 number of electron     518.9999648 magnetization 
 augmentation part      175.9448241 magnetization 

 eigenvalues of (default mixing * dielectric matrix)
  average eigenvalue GAMMA=   0.5320
  2.3118  0.8481  0.8481  0.2548  0.1697  0.0561  0.1265  0.0988  0.0742

  free energy =  -0.577405210086E+03  energy without entropy=  -0.577380287743E+03


--------------------------------------------------------------------------------------------------------




--------------------------------------- Iteration     17(  11)  ---------------------------------------


    POTLOK:  cpu time      0.0583: real time      0.0590
    SETDIJ:  cpu time      0.0083: real time      0.0083
    EDDIAG:  cpu time      0.4092: real time      0.4111
  RMM-DIIS:  cpu time      0.9161: real time      0.9202
    ORTHCH:  cpu time      0.1013: real time      0.1018
       DOS:  cpu time      0.0015: real time      0.0015
    CHARGE:  cpu time      0.1443: real time      0.1449
    MIXING:  cpu time      0.0023: real time      0.0023
    --------------------------------------------
      LOOP:  cpu time      1.6413: real time      1.6492

 eigenvalue-minimisations  :   549
 total energy-change (2. order) : 0.4435632E-04  (-0.7068776E-05)
 number of electron     518.9999648 magnetization 
 augmentation part      175.9492887 magnetization 

 eigenvalues of (default mixing * dielectric matrix)
  average eigenvalue GAMMA=   0.5151
  2.3375  0.9104  0.9104  0.2973  0.2036  0.1530  0.0561  0.0740  0.0981  0.1102

  free energy =  -0.577405165730E+03  energy without entropy=  -0.577380293069E+03


--------------------------------------------------------------------------------------------------------




--------------------------------------- Iteration     17(  12)  ---------------------------------------


    POTLOK:  cpu time      0.0563: real time      0.0614
    SETDIJ:  cpu time      0.0085: real time      0.0085
    EDDIAG:  cpu time      0.4696: real time      0.4717
  RMM-DIIS:  cpu time      0.7066: real time      0.7095
    ORTHCH:  cpu time      0.1141: real time      0.1146
       DOS:  cpu time      0.0015: real time      0.0015
    CHARGE:  cpu time      0.1160: real time      0.1165
    MIXING:  cpu time      0.0025: real time      0.0025
    --------------------------------------------
      LOOP:  cpu time      1.4751: real time      1.4862

 eigenvalue-minimisations  :   413
 total energy-change (2. order) : 0.1803519E-04  (-0.3719934E-05)
 number of electron     518.9999648 magnetization 
 augmentation part      175.9480762 magnetization 

 eigenvalues of (default mixing * dielectric matrix)
  average eigenvalue GAMMA=   0.5025
  2.3410  0.9583  0.9583  0.3802  0.2557  0.1622  0.1492  0.0561  0.0740  0.0998
  0.0925

  free energy =  -0.577405147695E+03  energy without entropy=  -0.577380296063E+03


--------------------------------------------------------------------------------------------------------




--------------------------------------- Iteration     17(  13)  ---------------------------------------


    POTLOK:  cpu time      0.0552: real time      0.0602
    SETDIJ:  cpu time      0.0085: real time      0.0085
    EDDIAG:  cpu time      0.4074: real time      0.4092
  RMM-DIIS:  cpu time      0.6689: real time      0.6719
    ORTHCH:  cpu time      0.1019: real time      0.1023
       DOS:  cpu time      0.0016: real time      0.0016
    --------------------------------------------
      LOOP:  cpu time      1.2435: real time      1.2537

 eigenvalue-minimisations  :   350
 total energy-change (2. order) : 0.7066636E-05  (-0.1384669E-05)
 number of electron     518.9999648 magnetization 
 augmentation part      175.9480762 magnetization 

  free energy =  -0.577405140628E+03  energy without entropy=  -0.577380219026E+03


--------------------------------------------------------------------------------------------------------




------------------------ aborting loop because EDIFF is reached ----------------------------------------





 total charge

# of ion       s       p       d       tot
------------------------------------------
    1        0.610   0.534   6.500   7.643
    2        0.610   0.531   6.506   7.647
    3        0.608   0.536   6.499   7.643
    4        0.605   0.532   6.508   7.646
    5        0.610   0.534   6.499   7.643
    6        0.610   0.534   6.497   7.641
    7        0.605   0.532   6.508   7.646
    8        0.608   0.536   6.499   7.643
    9        0.608   0.533   6.504   7.645
   10        0.605   0.536   6.502   7.644
   11        0.607   0.536   6.502   7.645
   12        0.607   0.536   6.502   7.644
   13        0.604   0.540   6.495   7.639
   14        0.605   0.536   6.503   7.644
   15        0.609   0.535   6.499   7.643
   16        0.609   0.535   6.499   7.643
   17        0.632   0.774   6.569   7.975
   18        0.632   0.774   6.569   7.975
   19        0.630   0.774   6.567   7.972
   20        0.629   0.770   6.560   7.959
   21        0.630   0.771   6.571   7.972
   22        0.630   0.771   6.571   7.972
   23        0.630   0.774   6.567   7.972
   24        0.631   0.772   6.572   7.975
   25        0.631   0.774   6.568   7.973
   26        0.631   0.774   6.567   7.973
   27        0.629   0.774   6.564   7.966
   28        0.632   0.774   6.564   7.970
   29        0.631   0.774   6.567   7.973
   30        0.631   0.774   6.567   7.973
   31        0.630   0.776   6.563   7.969
   32        0.632   0.774   6.564   7.970
   33        0.642   0.806   6.594   8.041
   34        0.647   0.817   6.589   8.053
   35        0.642   0.805   6.593   8.040
   36        0.639   0.794   6.581   8.015
   37        0.642   0.806   6.594   8.041
   38        0.642   0.799   6.596   8.037
   39        0.639   0.794   6.581   8.015
   40        0.642   0.805   6.593   8.040
   41        0.644   0.804   6.589   8.037
   42        0.643   0.796   6.594   8.033
   43        0.643   0.802   6.597   8.042
   44        0.643   0.802   6.597   8.042
   45        0.633   0.790   6.567   7.990
   46        0.643   0.796   6.594   8.033
   47        0.645   0.807   6.591   8.042
   48        0.645   0.807   6.591   8.042
   49        0.625   0.570   6.543   7.738
   50        0.625   0.570   6.543   7.738
   51        0.623   0.551   6.546   7.720
   52        0.623   0.561   6.575   7.759
   53        0.629   0.571   6.546   7.745
   54        0.629   0.571   6.546   7.745
   55        0.623   0.551   6.546   7.720
   56        0.626   0.552   6.538   7.716
   57        0.622   0.550   6.548   7.719
   58        0.598   0.657   6.551   7.806
   59        0.617   0.556   6.547   7.719
   60        0.622   0.552   6.545   7.720
   61        0.598   0.657   6.551   7.806
   62        0.622   0.550   6.547   7.719
   63        0.625   0.553   6.572   7.750
   64        0.622   0.552   6.546   7.720
   65        1.218   2.620   0.000   3.838
   66        0.633   0.082   0.000   0.715
   67        0.623   0.077   0.000   0.700
--------------------------------------------------
tot         42.485  45.663 419.326 507.474
 
    CHARGE:  cpu time      0.1177: real time      0.1182
    FORLOC:  cpu time      0.0161: real time      0.0162
    FORNL :  cpu time      0.4965: real time      0.4984
    STRESS:  cpu time      1.5404: real time      1.5466
    FORCOR:  cpu time      0.0726: real time      0.0729
    FORHAR:  cpu time      0.0257: real time      0.0258
    MIXING:  cpu time      0.0021: real time      0.0021
    OFIELD:  cpu time      0.0000: real time      0.0000

  FORCE on cell =-STRESS in cart. coord.  units (eV):
  Direction    XX          YY          ZZ          XY          YZ          ZX
  --------------------------------------------------------------------------------------
  Alpha Z  1067.80299  1067.80299  1067.80299
  Ewald   80372.13169 80401.80235************     0.08205     1.79439    -0.02636
  Hartree 87885.14409 87886.06551-86362.95291     0.02808     0.52606     0.00063
  E(xc)   -2442.53209 -2441.99165 -2432.83006    -0.00057     0.06840    -0.00032
  Local  ************************181897.48207    -0.10176    -0.99749     0.01869
  n-local   694.00901   694.42612   587.38352     0.00399    -0.77614     0.00113
  augment  2920.29638  2918.51909  2845.46760     0.00255    -0.26626    -0.00113
  Kinetic  6147.20097  6125.87826  6053.63748     0.00423    -0.83005     0.00853
  Fock        0.00000     0.00000     0.00000     0.00000     0.00000     0.00000
  -------------------------------------------------------------------------------------
  Total     -63.00924   -66.34130   -53.56215     0.01857    -0.48109     0.00117
  in kB     -56.18141   -59.15240   -47.75803     0.01656    -0.42896     0.00104
  external pressure =      -54.36 kB  Pullay stress =        0.00 kB



--------------------------------------------------------------------------------------------------------



  FREE ENERGIE OF THE ION-ELECTRON SYSTEM (eV)
  ---------------------------------------------------
  free  energy   TOTEN  =      -577.40514063 eV

  energy  without entropy=     -577.38021903  energy(sigma->0) =     -577.39267983
 
 d Force = 0.1797601E-02[-0.110E-01, 0.146E-01]  d Energy = 0.1526339E-02 0.271E-03
 d Force = 0.1832004E+01[ 0.180E+01, 0.186E+01]  d Ewald  = 0.1831900E+01 0.104E-03


--------------------------------------------------------------------------------------------------------


    POTLOK:  cpu time      0.0712: real time      0.0717


--------------------------------------------------------------------------------------------------------


 Finite differences progress:
  Degree of freedom:   8/  9
  Displacement:        2/  2
  Total:              16/ 18
  LATTYP: Found a hexagonal cell.
 ALAT       =    10.9034004211
 C/A-ratio  =     1.6006841223
  
  Lattice vectors:
  
 A1 = (  10.9034004211,   0.0000000000,   0.0000000000)
 A2 = (  -5.4517002106,   9.4426217523,   0.0000000000)
 A3 = (   0.0000000000,   0.0000000000,  17.4528999329)


Analysis of symmetry for initial positions (statically):
=====================================================================
 Subroutine PRICEL returns:
 Original cell was already a primitive cell.
 

 Routine SETGRP: Setting up the symmetry group for a 
 hexagonal supercell.


 Subroutine GETGRP returns: Found  1 space group operations
 (whereof  1 operations were pure point group operations)
 out of a pool of 24 trial point group operations.


The static configuration has the point symmetry C_1 .


Analysis of symmetry for dynamics (positions and initial velocities):
=====================================================================
 Subroutine PRICEL returns:
 Original cell was already a primitive cell.
 

 Routine SETGRP: Setting up the symmetry group for a 
 hexagonal supercell.


 Subroutine GETGRP returns: Found  1 space group operations
 (whereof  1 operations were pure point group operations)
 out of a pool of 24 trial point group operations.


The dynamic configuration has the point symmetry C_1 .


Analysis of constrained symmetry for selective dynamics:
=====================================================================
 Subroutine PRICEL returns:
 Original cell was already a primitive cell.
 

 Routine SETGRP: Setting up the symmetry group for a 
 hexagonal supercell.


 Subroutine GETGRP returns: Found  1 space group operations
 (whereof  1 operations were pure point group operations)
 out of a pool of 24 trial point group operations.


The constrained configuration has the point symmetry C_1 .


 Subroutine INISYM returns: Found  1 space group operations
 (whereof  1 operations are pure point group operations),
 and found     1 'primitive' translations

 
 KPOINTS: Kpoints                                 

Automatic generation of k-mesh.
 Grid dimensions read from file:
 generate k-points for:    1    1    1

 Generating k-lattice:

  Cartesian coordinates                     Fractional coordinates (reciprocal lattice)
     0.091714508  0.052951396  0.000000000     1.000000000  0.000000000  0.000000000
     0.000000000  0.105902791  0.000000000     0.000000000  1.000000000  0.000000000
     0.000000000  0.000000000  0.057297068     0.000000000  0.000000000  1.000000000

  Length of vectors
     0.105902791  0.105902791  0.057297068

  Shift w.r.t. Gamma in fractional coordinates (k-lattice)
     0.000000000  0.000000000  0.000000000

 
 Subroutine IBZKPT returns following result:
 ===========================================
 
 Found      1 irreducible k-points:
 
 Following reciprocal coordinates:
            Coordinates               Weight
  0.000000  0.000000  0.000000      1.000000
 
 Following cartesian coordinates:
            Coordinates               Weight
  0.000000  0.000000  0.000000      1.000000
 
    WAVPRE:  cpu time      0.0599: real time      0.1127
    FEWALD:  cpu time      0.0016: real time      0.0016
    ORTHCH:  cpu time      0.4695: real time      3.4817
     LOOP+:  cpu time     28.0641: real time     32.4302


--------------------------------------- Ionic step       18  -------------------------------------------




--------------------------------------- Iteration     18(   1)  ---------------------------------------


    POTLOK:  cpu time      0.0670: real time      0.0679
    SETDIJ:  cpu time      0.0088: real time      0.0088
     EDDAV:  cpu time      2.8566: real time      3.9887
       DOS:  cpu time      0.0006: real time      0.0006
    CHARGE:  cpu time      0.1210: real time      0.1216
    MIXING:  cpu time      0.0081: real time      0.0083
    --------------------------------------------
      LOOP:  cpu time      3.0621: real time      4.1959

 eigenvalue-minimisations  :   640
 total energy-change (2. order) :-0.1764978E-02  (-0.1492768E-01)
 number of electron     518.9999648 magnetization 
 augmentation part      175.9474430 magnetization 

  free energy =  -0.577406912672E+03  energy without entropy=  -0.577382035262E+03


--------------------------------------------------------------------------------------------------------




--------------------------------------- Iteration     18(   2)  ---------------------------------------


    POTLOK:  cpu time      0.0609: real time      0.0657
    SETDIJ:  cpu time      0.0095: real time      0.0095
    EDDIAG:  cpu time      0.6267: real time      0.6292
  RMM-DIIS:  cpu time      1.0975: real time      1.1021
    ORTHCH:  cpu time      0.1527: real time      0.1535
       DOS:  cpu time      0.0019: real time      0.0019
    CHARGE:  cpu time      0.1654: real time      0.1661
    MIXING:  cpu time      0.0042: real time      0.0043
    --------------------------------------------
      LOOP:  cpu time      2.1188: real time      2.1322

 eigenvalue-minimisations  :   658
 total energy-change (2. order) :-0.1219817E-03  (-0.7291003E-04)
 number of electron     518.9999648 magnetization 
 augmentation part      175.9328274 magnetization 

 eigenvalues of (default mixing * dielectric matrix)
  average eigenvalue GAMMA=   0.4382
  0.4382

  free energy =  -0.577407034654E+03  energy without entropy=  -0.577381892435E+03


--------------------------------------------------------------------------------------------------------




--------------------------------------- Iteration     18(   3)  ---------------------------------------


    POTLOK:  cpu time      0.0708: real time      0.0717
    SETDIJ:  cpu time      0.0083: real time      0.0084
    EDDIAG:  cpu time      0.4275: real time      0.4296
  RMM-DIIS:  cpu time      1.1369: real time      1.1425
    ORTHCH:  cpu time      0.1125: real time      0.1131
       DOS:  cpu time      0.0017: real time      0.0017
    CHARGE:  cpu time      0.1177: real time      0.1183
    MIXING:  cpu time      0.0018: real time      0.0018
    --------------------------------------------
      LOOP:  cpu time      1.8773: real time      1.8872

 eigenvalue-minimisations  :   674
 total energy-change (2. order) :-0.3198239E-03  (-0.4573835E-04)
 number of electron     518.9999648 magnetization 
 augmentation part      175.9802343 magnetization 

 eigenvalues of (default mixing * dielectric matrix)
  average eigenvalue GAMMA=   0.6980
  1.3120  0.0839

  free energy =  -0.577407354478E+03  energy without entropy=  -0.577382952264E+03


--------------------------------------------------------------------------------------------------------




--------------------------------------- Iteration     18(   4)  ---------------------------------------


    POTLOK:  cpu time      0.0737: real time      0.0745
    SETDIJ:  cpu time      0.0090: real time      0.0090
    EDDIAG:  cpu time      0.4258: real time      0.4282
  RMM-DIIS:  cpu time      1.3408: real time      1.3474
    ORTHCH:  cpu time      0.1060: real time      0.1065
       DOS:  cpu time      0.0016: real time      0.0016
    CHARGE:  cpu time      0.1239: real time      0.1245
    MIXING:  cpu time      0.0019: real time      0.0019
    --------------------------------------------
      LOOP:  cpu time      2.0828: real time      2.0937

 eigenvalue-minimisations  :   749
 total energy-change (2. order) :-0.3400811E-03  (-0.6986261E-04)
 number of electron     518.9999648 magnetization 
 augmentation part      175.9385499 magnetization 

 eigenvalues of (default mixing * dielectric matrix)
  average eigenvalue GAMMA=   0.7196
  1.9677  0.1322  0.0590

  free energy =  -0.577407694559E+03  energy without entropy=  -0.577383252539E+03


--------------------------------------------------------------------------------------------------------




--------------------------------------- Iteration     18(   5)  ---------------------------------------


    POTLOK:  cpu time      0.0730: real time      0.0738
    SETDIJ:  cpu time      0.0087: real time      0.0087
    EDDIAG:  cpu time      0.4325: real time      0.4345
  RMM-DIIS:  cpu time      1.2257: real time      1.2304
    ORTHCH:  cpu time      0.1410: real time      0.1416
       DOS:  cpu time      0.0017: real time      0.0017
    CHARGE:  cpu time      0.1253: real time      0.1258
    MIXING:  cpu time      0.0020: real time      0.0020
    --------------------------------------------
      LOOP:  cpu time      2.0099: real time      2.0184

 eigenvalue-minimisations  :   721
 total energy-change (2. order) : 0.5320242E-03  (-0.4982948E-04)
 number of electron     518.9999648 magnetization 
 augmentation part      175.9415116 magnetization 

 eigenvalues of (default mixing * dielectric matrix)
  average eigenvalue GAMMA=   0.6235
  2.1054  0.2195  0.1125  0.0564

  free energy =  -0.577407162535E+03  energy without entropy=  -0.577382107193E+03


--------------------------------------------------------------------------------------------------------




--------------------------------------- Iteration     18(   6)  ---------------------------------------


    POTLOK:  cpu time      0.0715: real time      0.0722
    SETDIJ:  cpu time      0.0104: real time      0.0104
    EDDIAG:  cpu time      0.4312: real time      0.4332
  RMM-DIIS:  cpu time      1.0995: real time      1.1038
    ORTHCH:  cpu time      0.1196: real time      0.1200
       DOS:  cpu time      0.0017: real time      0.0017
    CHARGE:  cpu time      0.1265: real time      0.1270
    MIXING:  cpu time      0.0023: real time      0.0024
    --------------------------------------------
      LOOP:  cpu time      1.8628: real time      1.8708

 eigenvalue-minimisations  :   659
 total energy-change (2. order) : 0.1459742E-03  (-0.1812080E-04)
 number of electron     518.9999648 magnetization 
 augmentation part      175.9492174 magnetization 

 eigenvalues of (default mixing * dielectric matrix)
  average eigenvalue GAMMA=   0.6016
  2.2022  0.4837  0.1634  0.1026  0.0560

  free energy =  -0.577407016561E+03  energy without entropy=  -0.577382180296E+03


--------------------------------------------------------------------------------------------------------




--------------------------------------- Iteration     18(   7)  ---------------------------------------


    POTLOK:  cpu time      0.0608: real time      0.0615
    SETDIJ:  cpu time      0.0088: real time      0.0088
    EDDIAG:  cpu time      0.4283: real time      0.4301
  RMM-DIIS:  cpu time      1.0777: real time      1.0830
    ORTHCH:  cpu time      0.1022: real time      0.1028
       DOS:  cpu time      0.0016: real time      0.0016
    --------------------------------------------
      LOOP:  cpu time      1.6794: real time      1.6877

 eigenvalue-minimisations  :   639
 total energy-change (2. order) :-0.1417837E-05  (-0.9782876E-05)
 number of electron     518.9999648 magnetization 
 augmentation part      175.9492174 magnetization 

  free energy =  -0.577407017978E+03  energy without entropy=  -0.577382052255E+03


--------------------------------------------------------------------------------------------------------




------------------------ aborting loop because EDIFF is reached ----------------------------------------





 total charge

# of ion       s       p       d       tot
------------------------------------------
    1        0.610   0.534   6.501   7.645
    2        0.610   0.531   6.501   7.642
    3        0.608   0.536   6.502   7.646
    4        0.605   0.532   6.507   7.644
    5        0.610   0.534   6.502   7.645
    6        0.609   0.534   6.493   7.637
    7        0.605   0.532   6.508   7.646
    8        0.608   0.536   6.499   7.643
    9        0.608   0.533   6.504   7.645
   10        0.605   0.536   6.502   7.643
   11        0.607   0.536   6.502   7.645
   12        0.607   0.536   6.500   7.643
   13        0.604   0.540   6.499   7.643
   14        0.605   0.536   6.504   7.645
   15        0.609   0.535   6.502   7.645
   16        0.609   0.535   6.502   7.646
   17        0.632   0.774   6.569   7.975
   18        0.632   0.774   6.569   7.975
   19        0.630   0.774   6.567   7.972
   20        0.629   0.770   6.560   7.959
   21        0.630   0.771   6.571   7.972
   22        0.630   0.771   6.571   7.972
   23        0.630   0.774   6.567   7.972
   24        0.631   0.772   6.572   7.975
   25        0.631   0.774   6.568   7.973
   26        0.631   0.774   6.567   7.973
   27        0.629   0.774   6.563   7.966
   28        0.632   0.774   6.564   7.970
   29        0.631   0.774   6.567   7.973
   30        0.631   0.774   6.567   7.973
   31        0.630   0.776   6.565   7.970
   32        0.632   0.774   6.564   7.970
   33        0.642   0.806   6.593   8.041
   34        0.647   0.817   6.589   8.053
   35        0.642   0.805   6.594   8.041
   36        0.639   0.794   6.581   8.015
   37        0.642   0.806   6.593   8.040
   38        0.642   0.799   6.596   8.037
   39        0.639   0.794   6.581   8.015
   40        0.642   0.805   6.594   8.041
   41        0.644   0.804   6.588   8.036
   42        0.643   0.796   6.594   8.033
   43        0.643   0.802   6.597   8.042
   44        0.643   0.802   6.597   8.042
   45        0.633   0.790   6.568   7.991
   46        0.643   0.796   6.594   8.033
   47        0.645   0.807   6.591   8.042
   48        0.645   0.807   6.591   8.042
   49        0.625   0.570   6.542   7.736
   50        0.625   0.570   6.543   7.737
   51        0.623   0.551   6.546   7.721
   52        0.623   0.561   6.575   7.760
   53        0.629   0.571   6.544   7.744
   54        0.629   0.571   6.545   7.745
   55        0.623   0.551   6.545   7.719
   56        0.626   0.552   6.539   7.717
   57        0.622   0.550   6.548   7.719
   58        0.598   0.657   6.551   7.806
   59        0.617   0.556   6.544   7.717
   60        0.622   0.552   6.546   7.721
   61        0.598   0.657   6.551   7.805
   62        0.622   0.550   6.547   7.719
   63        0.625   0.553   6.572   7.750
   64        0.622   0.552   6.548   7.722
   65        1.218   2.621   0.000   3.839
   66        0.633   0.082   0.000   0.716
   67        0.627   0.079   0.000   0.705
--------------------------------------------------
tot         42.489  45.666 419.324 507.479
 
    CHARGE:  cpu time      0.1189: real time      0.1195
    FORLOC:  cpu time      0.0297: real time      0.0298
    FORNL :  cpu time      0.4966: real time      0.4993
    STRESS:  cpu time      1.4646: real time      1.4721
    FORCOR:  cpu time      0.0607: real time      0.0610
    FORHAR:  cpu time      0.0251: real time      0.0253
    MIXING:  cpu time      0.0017: real time      0.0017
    OFIELD:  cpu time      0.0000: real time      0.0000

  FORCE on cell =-STRESS in cart. coord.  units (eV):
  Direction    XX          YY          ZZ          XY          YZ          ZX
  --------------------------------------------------------------------------------------
  Alpha Z  1067.80299  1067.80299  1067.80299
  Ewald   80369.62251 80398.07182************     0.08175     1.17798    -0.02761
  Hartree 87881.84721 87882.40291-86359.11789     0.05116     0.41631     0.00221
  E(xc)   -2442.54277 -2442.01337 -2432.84346    -0.00075     0.05921    -0.00075
  Local  ************************181889.77504    -0.12467    -0.50570     0.01362
  n-local   693.98283   694.41806   587.36841     0.00893    -0.75131     0.00081
  augment  2920.27111  2918.48690  2845.44801     0.00242    -0.24542     0.00052
  Kinetic  6147.24441  6126.21773  6053.34914     0.01580    -0.68387     0.01038
  Fock        0.00000     0.00000     0.00000     0.00000     0.00000     0.00000
  -------------------------------------------------------------------------------------
  Total     -62.97169   -66.30048   -53.74160     0.03465    -0.53281    -0.00081
  in kB     -56.14793   -59.11601   -47.91804     0.03090    -0.47507    -0.00072
  external pressure =      -54.39 kB  Pullay stress =        0.00 kB



--------------------------------------------------------------------------------------------------------



  FREE ENERGIE OF THE ION-ELECTRON SYSTEM (eV)
  ---------------------------------------------------
  free  energy   TOTEN  =      -577.40701798 eV

  energy  without entropy=     -577.38205226  energy(sigma->0) =     -577.39453512
 
 d Force = 0.1826569E-02[ 0.524E-03, 0.313E-02]  d Energy = 0.1877350E-02-0.508E-04
 d Force = 0.2210797E+01[ 0.222E+01, 0.220E+01]  d Ewald  = 0.2210730E+01 0.668E-04


--------------------------------------------------------------------------------------------------------


    POTLOK:  cpu time      0.0642: real time      0.0646


--------------------------------------------------------------------------------------------------------


 Finite differences progress:
  Degree of freedom:   9/  9
  Displacement:        1/  2
  Total:              17/ 18
  LATTYP: Found a hexagonal cell.
 ALAT       =    10.9034004211
 C/A-ratio  =     1.6006841223
  
  Lattice vectors:
  
 A1 = (  10.9034004211,   0.0000000000,   0.0000000000)
 A2 = (  -5.4517002106,   9.4426217523,   0.0000000000)
 A3 = (   0.0000000000,   0.0000000000,  17.4528999329)


Analysis of symmetry for initial positions (statically):
=====================================================================
 Subroutine PRICEL returns:
 Original cell was already a primitive cell.
 

 Routine SETGRP: Setting up the symmetry group for a 
 hexagonal supercell.


 Subroutine GETGRP returns: Found  1 space group operations
 (whereof  1 operations were pure point group operations)
 out of a pool of 24 trial point group operations.


The static configuration has the point symmetry C_1 .


Analysis of symmetry for dynamics (positions and initial velocities):
=====================================================================
 Subroutine PRICEL returns:
 Original cell was already a primitive cell.
 

 Routine SETGRP: Setting up the symmetry group for a 
 hexagonal supercell.


 Subroutine GETGRP returns: Found  1 space group operations
 (whereof  1 operations were pure point group operations)
 out of a pool of 24 trial point group operations.


The dynamic configuration has the point symmetry C_1 .


Analysis of constrained symmetry for selective dynamics:
=====================================================================
 Subroutine PRICEL returns:
 Original cell was already a primitive cell.
 

 Routine SETGRP: Setting up the symmetry group for a 
 hexagonal supercell.


 Subroutine GETGRP returns: Found  1 space group operations
 (whereof  1 operations were pure point group operations)
 out of a pool of 24 trial point group operations.


The constrained configuration has the point symmetry C_1 .


 Subroutine INISYM returns: Found  1 space group operations
 (whereof  1 operations are pure point group operations),
 and found     1 'primitive' translations

 
 KPOINTS: Kpoints                                 

Automatic generation of k-mesh.
 Grid dimensions read from file:
 generate k-points for:    1    1    1

 Generating k-lattice:

  Cartesian coordinates                     Fractional coordinates (reciprocal lattice)
     0.091714508  0.052951396  0.000000000     1.000000000  0.000000000  0.000000000
     0.000000000  0.105902791  0.000000000     0.000000000  1.000000000  0.000000000
     0.000000000  0.000000000  0.057297068     0.000000000  0.000000000  1.000000000

  Length of vectors
     0.105902791  0.105902791  0.057297068

  Shift w.r.t. Gamma in fractional coordinates (k-lattice)
     0.000000000  0.000000000  0.000000000

 
 Subroutine IBZKPT returns following result:
 ===========================================
 
 Found      1 irreducible k-points:
 
 Following reciprocal coordinates:
            Coordinates               Weight
  0.000000  0.000000  0.000000      1.000000
 
 Following cartesian coordinates:
            Coordinates               Weight
  0.000000  0.000000  0.000000      1.000000
 
    WAVPRE:  cpu time      0.0619: real time      0.0709
    FEWALD:  cpu time      0.0023: real time      0.0023
    ORTHCH:  cpu time      0.3681: real time      3.6801
     LOOP+:  cpu time     17.4252: real time     21.9533


--------------------------------------- Ionic step       19  -------------------------------------------




--------------------------------------- Iteration     19(   1)  ---------------------------------------


    POTLOK:  cpu time      0.0533: real time      0.0539
    SETDIJ:  cpu time      0.0089: real time      0.0089
     EDDAV:  cpu time      2.5774: real time      3.7042
       DOS:  cpu time      0.0005: real time      0.0005
    CHARGE:  cpu time      0.1250: real time      0.1256
    MIXING:  cpu time      0.0053: real time      0.0053
    --------------------------------------------
      LOOP:  cpu time      2.7702: real time      3.8985

 eigenvalue-minimisations  :   640
 total energy-change (2. order) : 0.1874223E-02  (-0.3324633E-01)
 number of electron     518.9999647 magnetization 
 augmentation part      175.9384229 magnetization 

  free energy =  -0.577405142337E+03  energy without entropy=  -0.577380141670E+03


--------------------------------------------------------------------------------------------------------




--------------------------------------- Iteration     19(   2)  ---------------------------------------


    POTLOK:  cpu time      0.0698: real time      0.0748
    SETDIJ:  cpu time      0.0117: real time      0.0118
    EDDIAG:  cpu time      0.4274: real time      0.4296
  RMM-DIIS:  cpu time      1.0767: real time      1.0827
    ORTHCH:  cpu time      0.1092: real time      0.1100
       DOS:  cpu time      0.0015: real time      0.0015
    CHARGE:  cpu time      0.1178: real time      0.1187
    MIXING:  cpu time      0.0018: real time      0.0018
    --------------------------------------------
      LOOP:  cpu time      1.8158: real time      1.8309

 eigenvalue-minimisations  :   656
 total energy-change (2. order) :-0.1961073E-02  (-0.6758760E-03)
 number of electron     518.9999646 magnetization 
 augmentation part      176.0195931 magnetization 

 eigenvalues of (default mixing * dielectric matrix)
  average eigenvalue GAMMA=   0.1804
  0.1804

  free energy =  -0.577407103410E+03  energy without entropy=  -0.577383454997E+03


--------------------------------------------------------------------------------------------------------




--------------------------------------- Iteration     19(   3)  ---------------------------------------


    POTLOK:  cpu time      0.0561: real time      0.0607
    SETDIJ:  cpu time      0.0088: real time      0.0088
    EDDIAG:  cpu time      0.4659: real time      0.4689
  RMM-DIIS:  cpu time      1.1053: real time      1.1113
    ORTHCH:  cpu time      0.1022: real time      0.1028
       DOS:  cpu time      0.0015: real time      0.0015
    CHARGE:  cpu time      0.1180: real time      0.1186
    MIXING:  cpu time      0.0020: real time      0.0020
    --------------------------------------------
      LOOP:  cpu time      1.8598: real time      1.8745

 eigenvalue-minimisations  :   655
 total energy-change (2. order) : 0.9286896E-03  (-0.3166113E-03)
 number of electron     518.9999646 magnetization 
 augmentation part      175.8958292 magnetization 

 eigenvalues of (default mixing * dielectric matrix)
  average eigenvalue GAMMA=   0.4918
  0.8997  0.0838

  free energy =  -0.577406174721E+03  energy without entropy=  -0.577382014113E+03


--------------------------------------------------------------------------------------------------------




--------------------------------------- Iteration     19(   4)  ---------------------------------------


    POTLOK:  cpu time      0.0712: real time      0.0721
    SETDIJ:  cpu time      0.0086: real time      0.0086
    EDDIAG:  cpu time      0.4186: real time      0.4206
  RMM-DIIS:  cpu time      1.1007: real time      1.1057
    ORTHCH:  cpu time      0.1156: real time      0.1161
       DOS:  cpu time      0.0016: real time      0.0016
    CHARGE:  cpu time      0.1272: real time      0.1278
    MIXING:  cpu time      0.0020: real time      0.0020
    --------------------------------------------
      LOOP:  cpu time      1.8455: real time      1.8546

 eigenvalue-minimisations  :   700
 total energy-change (2. order) :-0.2366403E-02  (-0.3453646E-03)
 number of electron     518.9999647 magnetization 
 augmentation part      175.9956077 magnetization 

 eigenvalues of (default mixing * dielectric matrix)
  average eigenvalue GAMMA=   0.4830
  1.2724  0.1133  0.0633

  free energy =  -0.577408541123E+03  energy without entropy=  -0.577383913321E+03


--------------------------------------------------------------------------------------------------------




--------------------------------------- Iteration     19(   5)  ---------------------------------------


    POTLOK:  cpu time      0.0688: real time      0.0695
    SETDIJ:  cpu time      0.0085: real time      0.0085
    EDDIAG:  cpu time      0.4188: real time      0.4207
  RMM-DIIS:  cpu time      1.0495: real time      1.0538
    ORTHCH:  cpu time      0.1052: real time      0.1057
       DOS:  cpu time      0.0017: real time      0.0017
    CHARGE:  cpu time      0.1226: real time      0.1231
    MIXING:  cpu time      0.0021: real time      0.0021
    --------------------------------------------
      LOOP:  cpu time      1.7773: real time      1.7853

 eigenvalue-minimisations  :   678
 total energy-change (2. order) : 0.2925800E-02  (-0.1882759E-03)
 number of electron     518.9999647 magnetization 
 augmentation part      175.9421241 magnetization 

 eigenvalues of (default mixing * dielectric matrix)
  average eigenvalue GAMMA=   0.4652
  1.4825  0.2246  0.0982  0.0554

  free energy =  -0.577405615324E+03  energy without entropy=  -0.577380603442E+03


--------------------------------------------------------------------------------------------------------




--------------------------------------- Iteration     19(   6)  ---------------------------------------


    POTLOK:  cpu time      0.0598: real time      0.0605
    SETDIJ:  cpu time      0.0088: real time      0.0088
    EDDIAG:  cpu time      0.4334: real time      0.4353
  RMM-DIIS:  cpu time      1.1030: real time      1.1085
    ORTHCH:  cpu time      0.1265: real time      0.1271
       DOS:  cpu time      0.0016: real time      0.0016
    CHARGE:  cpu time      0.1237: real time      0.1242
    MIXING:  cpu time      0.0021: real time      0.0021
    --------------------------------------------
      LOOP:  cpu time      1.8588: real time      1.8681

 eigenvalue-minimisations  :   674
 total energy-change (2. order) : 0.9559911E-03  (-0.1088366E-03)
 number of electron     518.9999646 magnetization 
 augmentation part      175.9445442 magnetization 

 eigenvalues of (default mixing * dielectric matrix)
  average eigenvalue GAMMA=   0.4761
  1.6061  0.4583  0.1661  0.0953  0.0549

  free energy =  -0.577404659333E+03  energy without entropy=  -0.577379755392E+03


--------------------------------------------------------------------------------------------------------




--------------------------------------- Iteration     19(   7)  ---------------------------------------


    POTLOK:  cpu time      0.0614: real time      0.0621
    SETDIJ:  cpu time      0.0089: real time      0.0089
    EDDIAG:  cpu time      0.4414: real time      0.4440
  RMM-DIIS:  cpu time      1.1771: real time      1.1826
    ORTHCH:  cpu time      0.1368: real time      0.1375
       DOS:  cpu time      0.0017: real time      0.0017
    CHARGE:  cpu time      0.1331: real time      0.1337
    MIXING:  cpu time      0.0024: real time      0.0024
    --------------------------------------------
      LOOP:  cpu time      1.9628: real time      1.9731

 eigenvalue-minimisations  :   673
 total energy-change (2. order) :-0.1318323E-05  (-0.5632654E-04)
 number of electron     518.9999647 magnetization 
 augmentation part      175.9511149 magnetization 

 eigenvalues of (default mixing * dielectric matrix)
  average eigenvalue GAMMA=   0.5283
  1.8407  0.8343  0.2175  0.0549  0.0934  0.1289

  free energy =  -0.577404660651E+03  energy without entropy=  -0.577379834754E+03


--------------------------------------------------------------------------------------------------------




--------------------------------------- Iteration     19(   8)  ---------------------------------------


    POTLOK:  cpu time      0.0750: real time      0.0758
    SETDIJ:  cpu time      0.0087: real time      0.0087
    EDDIAG:  cpu time      0.4854: real time      0.4882
  RMM-DIIS:  cpu time      1.2789: real time      1.2857
    ORTHCH:  cpu time      0.1085: real time      0.1091
       DOS:  cpu time      0.0016: real time      0.0016
    CHARGE:  cpu time      0.1206: real time      0.1212
    MIXING:  cpu time      0.0023: real time      0.0023
    --------------------------------------------
      LOOP:  cpu time      2.0810: real time      2.0926

 eigenvalue-minimisations  :   681
 total energy-change (2. order) : 0.1154407E-04  (-0.3794792E-04)
 number of electron     518.9999647 magnetization 
 augmentation part      175.9572146 magnetization 

 eigenvalues of (default mixing * dielectric matrix)
  average eigenvalue GAMMA=   0.5345
  2.0544  0.9723  0.2744  0.1785  0.0549  0.1131  0.0935

  free energy =  -0.577404649107E+03  energy without entropy=  -0.577379834979E+03


--------------------------------------------------------------------------------------------------------




--------------------------------------- Iteration     19(   9)  ---------------------------------------


    POTLOK:  cpu time      0.0675: real time      0.0727
    SETDIJ:  cpu time      0.0087: real time      0.0087
    EDDIAG:  cpu time      0.4433: real time      0.4453
  RMM-DIIS:  cpu time      1.0764: real time      1.0812
    ORTHCH:  cpu time      0.1483: real time      0.1490
       DOS:  cpu time      0.0015: real time      0.0015
    CHARGE:  cpu time      0.1183: real time      0.1189
    MIXING:  cpu time      0.0023: real time      0.0023
    --------------------------------------------
      LOOP:  cpu time      1.8665: real time      1.8797

 eigenvalue-minimisations  :   653
 total energy-change (2. order) : 0.5585343E-04  (-0.1964371E-04)
 number of electron     518.9999647 magnetization 
 augmentation part      175.9509656 magnetization 

 eigenvalues of (default mixing * dielectric matrix)
  average eigenvalue GAMMA=   0.5278
  2.2083  0.9927  0.4151  0.2147  0.0549  0.1401  0.0923  0.1045

  free energy =  -0.577404593253E+03  energy without entropy=  -0.577379652910E+03


--------------------------------------------------------------------------------------------------------




--------------------------------------- Iteration     19(  10)  ---------------------------------------


    POTLOK:  cpu time      0.0714: real time      0.0722
    SETDIJ:  cpu time      0.0086: real time      0.0087
    EDDIAG:  cpu time      0.4318: real time      0.4339
  RMM-DIIS:  cpu time      1.2289: real time      1.2341
    ORTHCH:  cpu time      0.1008: real time      0.1013
       DOS:  cpu time      0.0013: real time      0.0013
    CHARGE:  cpu time      0.1160: real time      0.1166
    MIXING:  cpu time      0.0023: real time      0.0023
    --------------------------------------------
      LOOP:  cpu time      1.9612: real time      1.9704

 eigenvalue-minimisations  :   665
 total energy-change (2. order) : 0.6152444E-04  (-0.1187477E-04)
 number of electron     518.9999646 magnetization 
 augmentation part      175.9498971 magnetization 

 eigenvalues of (default mixing * dielectric matrix)
  average eigenvalue GAMMA=   0.5370
  2.3308  0.8352  0.8352  0.2655  0.1897  0.0549  0.1320  0.0981  0.0914

  free energy =  -0.577404531729E+03  energy without entropy=  -0.577379649807E+03


--------------------------------------------------------------------------------------------------------




--------------------------------------- Iteration     19(  11)  ---------------------------------------


    POTLOK:  cpu time      0.0578: real time      0.0585
    SETDIJ:  cpu time      0.0084: real time      0.0085
    EDDIAG:  cpu time      0.4136: real time      0.4154
  RMM-DIIS:  cpu time      0.8870: real time      0.8917
    ORTHCH:  cpu time      0.1423: real time      0.1430
       DOS:  cpu time      0.0014: real time      0.0014
    CHARGE:  cpu time      0.1098: real time      0.1104
    MIXING:  cpu time      0.0025: real time      0.0025
    --------------------------------------------
      LOOP:  cpu time      1.6228: real time      1.6314

 eigenvalue-minimisations  :   547
 total energy-change (2. order) : 0.1204459E-04  (-0.5404951E-05)
 number of electron     518.9999647 magnetization 
 augmentation part      175.9558717 magnetization 

 eigenvalues of (default mixing * dielectric matrix)
  average eigenvalue GAMMA=   0.5187
  2.3794  0.9056  0.9056  0.2879  0.2022  0.0549  0.1413  0.1233  0.0963  0.0901

  free energy =  -0.577404519684E+03  energy without entropy=  -0.577379646583E+03


--------------------------------------------------------------------------------------------------------




--------------------------------------- Iteration     19(  12)  ---------------------------------------


    POTLOK:  cpu time      0.0684: real time      0.0692
    SETDIJ:  cpu time      0.0085: real time      0.0085
    EDDIAG:  cpu time      0.4517: real time      0.4540
  RMM-DIIS:  cpu time      0.6602: real time      0.6633
    ORTHCH:  cpu time      0.1292: real time      0.1298
       DOS:  cpu time      0.0017: real time      0.0017
    CHARGE:  cpu time      0.1266: real time      0.1271
    MIXING:  cpu time      0.0025: real time      0.0025
    --------------------------------------------
      LOOP:  cpu time      1.4486: real time      1.4561

 eigenvalue-minimisations  :   356
 total energy-change (2. order) : 0.1642651E-04  (-0.2198108E-05)
 number of electron     518.9999647 magnetization 
 augmentation part      175.9456892 magnetization 

 eigenvalues of (default mixing * dielectric matrix)
  average eigenvalue GAMMA=   0.5041
  2.3938  0.9734  0.9734  0.2976  0.2568  0.1892  0.0549  0.1330  0.1014  0.0924
  0.0792

  free energy =  -0.577404503258E+03  energy without entropy=  -0.577379564168E+03


--------------------------------------------------------------------------------------------------------




--------------------------------------- Iteration     19(  13)  ---------------------------------------


    POTLOK:  cpu time      0.0639: real time      0.0647
    SETDIJ:  cpu time      0.0087: real time      0.0087
    EDDIAG:  cpu time      0.4382: real time      0.4403
  RMM-DIIS:  cpu time      0.6703: real time      0.6733
    ORTHCH:  cpu time      0.1235: real time      0.1240
       DOS:  cpu time      0.0019: real time      0.0019
    CHARGE:  cpu time      0.1236: real time      0.1241
    MIXING:  cpu time      0.0026: real time      0.0026
    --------------------------------------------
      LOOP:  cpu time      1.4326: real time      1.4396

 eigenvalue-minimisations  :   340
 total energy-change (2. order) : 0.1245506E-04  (-0.1117886E-05)
 number of electron     518.9999647 magnetization 
 augmentation part      175.9503290 magnetization 

 eigenvalues of (default mixing * dielectric matrix)
  average eigenvalue GAMMA=   0.4955
  2.3972  1.0108  1.0108  0.3583  0.3289  0.2031  0.1830  0.0549  0.1314  0.1002
  0.0921  0.0756

  free energy =  -0.577404490803E+03  energy without entropy=  -0.577379585575E+03


--------------------------------------------------------------------------------------------------------




--------------------------------------- Iteration     19(  14)  ---------------------------------------


    POTLOK:  cpu time      0.0690: real time      0.0698
    SETDIJ:  cpu time      0.0087: real time      0.0088
    EDDIAG:  cpu time      0.4354: real time      0.4373
  RMM-DIIS:  cpu time      0.6817: real time      0.6845
    ORTHCH:  cpu time      0.1103: real time      0.1107
       DOS:  cpu time      0.0018: real time      0.0018
    --------------------------------------------
      LOOP:  cpu time      1.3068: real time      1.3128

 eigenvalue-minimisations  :   335
 total energy-change (2. order) : 0.2864137E-05  (-0.4738236E-06)
 number of electron     518.9999647 magnetization 
 augmentation part      175.9503290 magnetization 

  free energy =  -0.577404487939E+03  energy without entropy=  -0.577379570142E+03


--------------------------------------------------------------------------------------------------------




------------------------ aborting loop because EDIFF is reached ----------------------------------------





 total charge

# of ion       s       p       d       tot
------------------------------------------
    1        0.610   0.534   6.501   7.644
    2        0.610   0.531   6.506   7.647
    3        0.608   0.536   6.499   7.643
    4        0.605   0.532   6.508   7.646
    5        0.610   0.534   6.501   7.644
    6        0.609   0.534   6.496   7.640
    7        0.605   0.532   6.507   7.645
    8        0.608   0.536   6.499   7.644
    9        0.608   0.533   6.504   7.645
   10        0.605   0.536   6.503   7.645
   11        0.607   0.536   6.501   7.644
   12        0.607   0.536   6.502   7.644
   13        0.604   0.540   6.496   7.640
   14        0.605   0.536   6.502   7.644
   15        0.609   0.535   6.499   7.643
   16        0.609   0.535   6.499   7.643
   17        0.632   0.774   6.569   7.975
   18        0.632   0.774   6.570   7.976
   19        0.630   0.774   6.568   7.972
   20        0.629   0.770   6.560   7.959
   21        0.630   0.771   6.571   7.972
   22        0.630   0.771   6.571   7.972
   23        0.630   0.774   6.567   7.972
   24        0.631   0.772   6.572   7.975
   25        0.631   0.774   6.567   7.972
   26        0.631   0.774   6.567   7.973
   27        0.629   0.774   6.564   7.966
   28        0.632   0.774   6.564   7.970
   29        0.631   0.774   6.567   7.973
   30        0.631   0.774   6.567   7.972
   31        0.630   0.776   6.564   7.969
   32        0.632   0.774   6.564   7.970
   33        0.642   0.806   6.594   8.041
   34        0.647   0.817   6.589   8.053
   35        0.642   0.805   6.594   8.041
   36        0.639   0.794   6.581   8.015
   37        0.642   0.806   6.594   8.041
   38        0.642   0.799   6.596   8.036
   39        0.639   0.794   6.581   8.015
   40        0.642   0.805   6.594   8.041
   41        0.644   0.805   6.588   8.037
   42        0.643   0.796   6.594   8.033
   43        0.643   0.802   6.597   8.042
   44        0.643   0.802   6.597   8.042
   45        0.633   0.790   6.568   7.991
   46        0.643   0.796   6.594   8.032
   47        0.645   0.807   6.591   8.043
   48        0.645   0.807   6.591   8.043
   49        0.625   0.570   6.543   7.738
   50        0.625   0.570   6.542   7.737
   51        0.623   0.551   6.546   7.720
   52        0.623   0.561   6.575   7.760
   53        0.629   0.571   6.545   7.745
   54        0.629   0.571   6.545   7.744
   55        0.623   0.551   6.546   7.720
   56        0.626   0.552   6.539   7.716
   57        0.622   0.550   6.547   7.719
   58        0.598   0.657   6.551   7.806
   59        0.617   0.556   6.546   7.719
   60        0.623   0.552   6.547   7.722
   61        0.598   0.657   6.551   7.806
   62        0.622   0.549   6.547   7.718
   63        0.625   0.553   6.573   7.751
   64        0.622   0.552   6.547   7.721
   65        1.219   2.634   0.000   3.853
   66        0.633   0.082   0.000   0.715
   67        0.644   0.086   0.000   0.731
--------------------------------------------------
tot         42.508  45.686 419.327 507.520
 
    CHARGE:  cpu time      0.1239: real time      0.1244
    FORLOC:  cpu time      0.0166: real time      0.0166
    FORNL :  cpu time      0.5204: real time      0.5223
    STRESS:  cpu time      1.5144: real time      1.5205
    FORCOR:  cpu time      0.0619: real time      0.0622
    FORHAR:  cpu time      0.0258: real time      0.0259
    MIXING:  cpu time      0.0022: real time      0.0023
    OFIELD:  cpu time      0.0000: real time      0.0000

  FORCE on cell =-STRESS in cart. coord.  units (eV):
  Direction    XX          YY          ZZ          XY          YZ          ZX
  --------------------------------------------------------------------------------------
  Alpha Z  1067.80299  1067.80299  1067.80299
  Ewald   80374.72488 80405.54898************     0.08423     1.21310    -0.02749
  Hartree 87887.89147 87888.78196-86364.89092     0.01999     0.67941    -0.00135
  E(xc)   -2442.59762 -2442.06993 -2432.91443    -0.00047     0.06579     0.00006
  Local  ************************181901.73826    -0.09696    -1.00989     0.02568
  n-local   693.83661   694.16984   587.20977     0.00029    -0.68500     0.00161
  augment  2920.27332  2918.53094  2845.49360     0.00228    -0.24762    -0.00266
  Kinetic  6147.55890  6126.30465  6054.16912    -0.00823    -0.90085     0.00654
  Fock        0.00000     0.00000     0.00000     0.00000     0.00000     0.00000
  -------------------------------------------------------------------------------------
  Total     -62.95944   -65.82114   -53.24630     0.00113    -0.88505     0.00238
  in kB     -56.13701   -58.68861   -47.47641     0.00101    -0.78915     0.00212
  external pressure =      -54.10 kB  Pullay stress =        0.00 kB



--------------------------------------------------------------------------------------------------------



  FREE ENERGIE OF THE ION-ELECTRON SYSTEM (eV)
  ---------------------------------------------------
  free  energy   TOTEN  =      -577.40448794 eV

  energy  without entropy=     -577.37957014  energy(sigma->0) =     -577.39202904
 
 d Force =-0.2541947E-02[-0.989E-02, 0.480E-02]  d Energy =-0.2530040E-02-0.119E-04
 d Force =-0.6248345E+01[-0.627E+01,-0.623E+01]  d Ewald  =-0.6248684E+01 0.340E-03


--------------------------------------------------------------------------------------------------------


    POTLOK:  cpu time      0.0620: real time      0.0623


--------------------------------------------------------------------------------------------------------


 Finite differences progress:
  Degree of freedom:   9/  9
  Displacement:        2/  2
  Total:              18/ 18
 
 SECOND DERIVATIVES (NOT SYMMETRIZED)
 ------------------------------------
              65X         65Y         65Z         66X         66Y         66Z         67X         67Y         67Z 
 65X    -8.636265   -0.015504    0.040866    1.456236   -0.008621    0.001794    1.713227    0.023271   -0.010499
 65Y    -0.054068  -56.021375    0.247171   -0.011821   26.678263   18.294804    0.026382   26.462924  -18.408302
 65Z     0.028109    0.195414  -42.771567   -0.009954   14.619458   15.827994   -0.022700  -14.699899   16.154956
 66X     1.410337   -0.008475   -0.034805   -1.589972    0.000764   -0.005286   -0.069005    0.011428   -0.011391
 66Y    -0.010369   26.745015   14.697702   -0.006060  -28.800209  -16.831961   -0.000972    2.185344    1.956602
 66Z    -0.009558   18.333463   15.775986    0.010199  -16.819340  -15.964092   -0.000462   -2.024525   -0.923232
 67X     1.654699    0.053079   -0.083461   -0.070108    0.059199    0.031560   -1.614387   -0.098095    0.076378
 67Y     0.020642   26.530632  -14.703878    0.002979    2.124096   -2.065180   -0.037946  -28.498918   16.918116
 67Z    -0.024968  -18.408472   16.078412    0.001196    2.042406   -0.882245    0.018020   16.828822  -16.319927
 
 
 Eigenvectors and eigenvalues of the dynamical matrix
 ----------------------------------------------------
 
 
   1 f  =  104.009885 THz   653.513380 2PiTHz 3469.396309 cm-1   430.150126 meV
             X         Y         Z           dx          dy          dz
     -0.000054  1.573802  0.000000            0           0           0  
      2.725796  1.573802  0.000000            0           0           0  
     -1.362980  3.934457  0.000000            0           0           0  
      1.362870  3.934457  0.000000            0           0           0  
      5.451646  1.573802  0.000000            0           0           0  
      8.177495  1.573802  0.000000            0           0           0  
      4.088720  3.934457  0.000000            0           0           0  
      6.814570  3.934457  0.000000            0           0           0  
     -2.725905  6.295113  0.000000            0           0           0  
     -0.000055  6.295113  0.000000            0           0           0  
     -4.088830  8.655768  0.000000            0           0           0  
     -1.362980  8.655768  0.000000            0           0           0  
      2.725796  6.295113  0.000000            0           0           0  
      5.451645  6.295113  0.000000            0           0           0  
      1.362870  8.655768  0.000000            0           0           0  
      4.088720  8.655768  0.000000            0           0           0  
      1.362980  0.786854  2.150895            0           0           0  
      4.088830  0.786854  2.150895            0           0           0  
      0.000054  3.147509  2.150895            0           0           0  
      2.725905  3.147509  2.150895            0           0           0  
      6.814680  0.786854  2.150895            0           0           0  
      9.540530  0.786854  2.150895            0           0           0  
      5.451755  3.147509  2.150895            0           0           0  
      8.177606  3.147509  2.150895            0           0           0  
     -1.362871  5.508164  2.150895            0           0           0  
      1.362980  5.508164  2.150895            0           0           0  
     -2.725795  7.868820  2.150895            0           0           0  
      0.000055  7.868820  2.150895            0           0           0  
      4.088830  5.508164  2.150895            0           0           0  
      6.814680  5.508164  2.150895            0           0           0  
      2.725905  7.868820  2.150895            0           0           0  
      5.451756  7.868820  2.150895            0           0           0  
      0.002037  1.575334  4.281227            0           0           0  
      2.725850  1.555360  4.283069            0           0           0  
     -1.360631  3.934991  4.280683            0           0           0  
      1.352875  3.941593  4.285791            0           0           0  
      5.449672  1.575339  4.281216            0           0           0  
      8.177556  1.577844  4.280246            0           0           0  
      4.098807  3.941608  4.285808            0           0           0  
      6.812383  3.935002  4.280701            0           0           0  
     -2.725863  6.288728  4.289326            0           0           0  
     -0.008080  6.289270  4.277284            0           0           0  
     -4.092193  8.659066  4.282035            0           0           0  
     -1.359600  8.659130  4.282003            0           0           0  
      2.725840  6.285995  4.279712            0           0           0  
      5.459677  6.289160  4.277357            0           0           0  
      1.361936  8.649722  4.284102            0           0           0  
      4.089869  8.649774  4.284090            0           0           0  
      1.354719  0.779120  6.354553            0           0           0  
      4.096911  0.779164  6.354584            0           0           0  
     -0.007777  3.134942  6.361982            0           0           0  
      2.725813  3.083988  6.325100            0           0           0  
      6.814780  0.792015  6.352076            0           0           0  
      9.540286  0.792049  6.352075            0           0           0  
      5.459385  3.134975  6.362025            0           0           0  
      8.177547  3.152259  6.359790            0           0           0  
     -1.350779  5.509621  6.354665            0           0           0  
      1.393216  5.498688  6.430153            0           0           0  
     -2.725843  7.854404  6.356402            0           0           0  
     -0.004271  7.875791  6.351655            0           0           0  
      4.058013  5.498669  6.430585            0           0           0  
      6.802349  5.509628  6.354717            0           0           0  
      2.725862  7.933748  6.342872            0           0           0  
      5.455913  7.875717  6.351704            0           0           0  
      2.725111  5.477077  8.066393    -0.000099   -0.290220   -0.000047  
      2.724753  6.307122  8.664007    -0.000144    0.549452    0.402932  
      2.724203  4.654260  8.672815     0.000855    0.538172   -0.402356  
 
   2 f  =  101.185812 THz   635.769208 2PiTHz 3375.195387 cm-1   418.470706 meV
             X         Y         Z           dx          dy          dz
     -0.000054  1.573802  0.000000            0           0           0  
      2.725796  1.573802  0.000000            0           0           0  
     -1.362980  3.934457  0.000000            0           0           0  
      1.362870  3.934457  0.000000            0           0           0  
      5.451646  1.573802  0.000000            0           0           0  
      8.177495  1.573802  0.000000            0           0           0  
      4.088720  3.934457  0.000000            0           0           0  
      6.814570  3.934457  0.000000            0           0           0  
     -2.725905  6.295113  0.000000            0           0           0  
     -0.000055  6.295113  0.000000            0           0           0  
     -4.088830  8.655768  0.000000            0           0           0  
     -1.362980  8.655768  0.000000            0           0           0  
      2.725796  6.295113  0.000000            0           0           0  
      5.451645  6.295113  0.000000            0           0           0  
      1.362870  8.655768  0.000000            0           0           0  
      4.088720  8.655768  0.000000            0           0           0  
      1.362980  0.786854  2.150895            0           0           0  
      4.088830  0.786854  2.150895            0           0           0  
      0.000054  3.147509  2.150895            0           0           0  
      2.725905  3.147509  2.150895            0           0           0  
      6.814680  0.786854  2.150895            0           0           0  
      9.540530  0.786854  2.150895            0           0           0  
      5.451755  3.147509  2.150895            0           0           0  
      8.177606  3.147509  2.150895            0           0           0  
     -1.362871  5.508164  2.150895            0           0           0  
      1.362980  5.508164  2.150895            0           0           0  
     -2.725795  7.868820  2.150895            0           0           0  
      0.000055  7.868820  2.150895            0           0           0  
      4.088830  5.508164  2.150895            0           0           0  
      6.814680  5.508164  2.150895            0           0           0  
      2.725905  7.868820  2.150895            0           0           0  
      5.451756  7.868820  2.150895            0           0           0  
      0.002037  1.575334  4.281227            0           0           0  
      2.725850  1.555360  4.283069            0           0           0  
     -1.360631  3.934991  4.280683            0           0           0  
      1.352875  3.941593  4.285791            0           0           0  
      5.449672  1.575339  4.281216            0           0           0  
      8.177556  1.577844  4.280246            0           0           0  
      4.098807  3.941608  4.285808            0           0           0  
      6.812383  3.935002  4.280701            0           0           0  
     -2.725863  6.288728  4.289326            0           0           0  
     -0.008080  6.289270  4.277284            0           0           0  
     -4.092193  8.659066  4.282035            0           0           0  
     -1.359600  8.659130  4.282003            0           0           0  
      2.725840  6.285995  4.279712            0           0           0  
      5.459677  6.289160  4.277357            0           0           0  
      1.361936  8.649722  4.284102            0           0           0  
      4.089869  8.649774  4.284090            0           0           0  
      1.354719  0.779120  6.354553            0           0           0  
      4.096911  0.779164  6.354584            0           0           0  
     -0.007777  3.134942  6.361982            0           0           0  
      2.725813  3.083988  6.325100            0           0           0  
      6.814780  0.792015  6.352076            0           0           0  
      9.540286  0.792049  6.352075            0           0           0  
      5.459385  3.134975  6.362025            0           0           0  
      8.177547  3.152259  6.359790            0           0           0  
     -1.350779  5.509621  6.354665            0           0           0  
      1.393216  5.498688  6.430153            0           0           0  
     -2.725843  7.854404  6.356402            0           0           0  
     -0.004271  7.875791  6.351655            0           0           0  
      4.058013  5.498669  6.430585            0           0           0  
      6.802349  5.509628  6.354717            0           0           0  
      2.725862  7.933748  6.342872            0           0           0  
      5.455913  7.875717  6.351704            0           0           0  
      2.725111  5.477077  8.066393     0.000205    0.001536   -0.200500  
      2.724753  6.307122  8.664007     0.000133    0.577363    0.374637  
      2.724203  4.654260  8.672815    -0.002068   -0.580949    0.385475  
 
   3 f  =   44.763255 THz   281.255823 2PiTHz 1493.141450 cm-1   185.125862 meV
             X         Y         Z           dx          dy          dz
     -0.000054  1.573802  0.000000            0           0           0  
      2.725796  1.573802  0.000000            0           0           0  
     -1.362980  3.934457  0.000000            0           0           0  
      1.362870  3.934457  0.000000            0           0           0  
      5.451646  1.573802  0.000000            0           0           0  
      8.177495  1.573802  0.000000            0           0           0  
      4.088720  3.934457  0.000000            0           0           0  
      6.814570  3.934457  0.000000            0           0           0  
     -2.725905  6.295113  0.000000            0           0           0  
     -0.000055  6.295113  0.000000            0           0           0  
     -4.088830  8.655768  0.000000            0           0           0  
     -1.362980  8.655768  0.000000            0           0           0  
      2.725796  6.295113  0.000000            0           0           0  
      5.451645  6.295113  0.000000            0           0           0  
      1.362870  8.655768  0.000000            0           0           0  
      4.088720  8.655768  0.000000            0           0           0  
      1.362980  0.786854  2.150895            0           0           0  
      4.088830  0.786854  2.150895            0           0           0  
      0.000054  3.147509  2.150895            0           0           0  
      2.725905  3.147509  2.150895            0           0           0  
      6.814680  0.786854  2.150895            0           0           0  
      9.540530  0.786854  2.150895            0           0           0  
      5.451755  3.147509  2.150895            0           0           0  
      8.177606  3.147509  2.150895            0           0           0  
     -1.362871  5.508164  2.150895            0           0           0  
      1.362980  5.508164  2.150895            0           0           0  
     -2.725795  7.868820  2.150895            0           0           0  
      0.000055  7.868820  2.150895            0           0           0  
      4.088830  5.508164  2.150895            0           0           0  
      6.814680  5.508164  2.150895            0           0           0  
      2.725905  7.868820  2.150895            0           0           0  
      5.451756  7.868820  2.150895            0           0           0  
      0.002037  1.575334  4.281227            0           0           0  
      2.725850  1.555360  4.283069            0           0           0  
     -1.360631  3.934991  4.280683            0           0           0  
      1.352875  3.941593  4.285791            0           0           0  
      5.449672  1.575339  4.281216            0           0           0  
      8.177556  1.577844  4.280246            0           0           0  
      4.098807  3.941608  4.285808            0           0           0  
      6.812383  3.935002  4.280701            0           0           0  
     -2.725863  6.288728  4.289326            0           0           0  
     -0.008080  6.289270  4.277284            0           0           0  
     -4.092193  8.659066  4.282035            0           0           0  
     -1.359600  8.659130  4.282003            0           0           0  
      2.725840  6.285995  4.279712            0           0           0  
      5.459677  6.289160  4.277357            0           0           0  
      1.361936  8.649722  4.284102            0           0           0  
      4.089869  8.649774  4.284090            0           0           0  
      1.354719  0.779120  6.354553            0           0           0  
      4.096911  0.779164  6.354584            0           0           0  
     -0.007777  3.134942  6.361982            0           0           0  
      2.725813  3.083988  6.325100            0           0           0  
      6.814780  0.792015  6.352076            0           0           0  
      9.540286  0.792049  6.352075            0           0           0  
      5.459385  3.134975  6.362025            0           0           0  
      8.177547  3.152259  6.359790            0           0           0  
     -1.350779  5.509621  6.354665            0           0           0  
      1.393216  5.498688  6.430153            0           0           0  
     -2.725843  7.854404  6.356402            0           0           0  
     -0.004271  7.875791  6.351655            0           0           0  
      4.058013  5.498669  6.430585            0           0           0  
      6.802349  5.509628  6.354717            0           0           0  
      2.725862  7.933748  6.342872            0           0           0  
      5.455913  7.875717  6.351704            0           0           0  
      2.725111  5.477077  8.066393    -0.000075    0.001974    0.282682  
      2.724753  6.307122  8.664007     0.000647    0.400525   -0.541230  
      2.724203  4.654260  8.672815    -0.000205   -0.410751   -0.545912  
 
   4 f  =   21.758981 THz   136.715707 2PiTHz  725.801465 cm-1    89.987872 meV
             X         Y         Z           dx          dy          dz
     -0.000054  1.573802  0.000000            0           0           0  
      2.725796  1.573802  0.000000            0           0           0  
     -1.362980  3.934457  0.000000            0           0           0  
      1.362870  3.934457  0.000000            0           0           0  
      5.451646  1.573802  0.000000            0           0           0  
      8.177495  1.573802  0.000000            0           0           0  
      4.088720  3.934457  0.000000            0           0           0  
      6.814570  3.934457  0.000000            0           0           0  
     -2.725905  6.295113  0.000000            0           0           0  
     -0.000055  6.295113  0.000000            0           0           0  
     -4.088830  8.655768  0.000000            0           0           0  
     -1.362980  8.655768  0.000000            0           0           0  
      2.725796  6.295113  0.000000            0           0           0  
      5.451645  6.295113  0.000000            0           0           0  
      1.362870  8.655768  0.000000            0           0           0  
      4.088720  8.655768  0.000000            0           0           0  
      1.362980  0.786854  2.150895            0           0           0  
      4.088830  0.786854  2.150895            0           0           0  
      0.000054  3.147509  2.150895            0           0           0  
      2.725905  3.147509  2.150895            0           0           0  
      6.814680  0.786854  2.150895            0           0           0  
      9.540530  0.786854  2.150895            0           0           0  
      5.451755  3.147509  2.150895            0           0           0  
      8.177606  3.147509  2.150895            0           0           0  
     -1.362871  5.508164  2.150895            0           0           0  
      1.362980  5.508164  2.150895            0           0           0  
     -2.725795  7.868820  2.150895            0           0           0  
      0.000055  7.868820  2.150895            0           0           0  
      4.088830  5.508164  2.150895            0           0           0  
      6.814680  5.508164  2.150895            0           0           0  
      2.725905  7.868820  2.150895            0           0           0  
      5.451756  7.868820  2.150895            0           0           0  
      0.002037  1.575334  4.281227            0           0           0  
      2.725850  1.555360  4.283069            0           0           0  
     -1.360631  3.934991  4.280683            0           0           0  
      1.352875  3.941593  4.285791            0           0           0  
      5.449672  1.575339  4.281216            0           0           0  
      8.177556  1.577844  4.280246            0           0           0  
      4.098807  3.941608  4.285808            0           0           0  
      6.812383  3.935002  4.280701            0           0           0  
     -2.725863  6.288728  4.289326            0           0           0  
     -0.008080  6.289270  4.277284            0           0           0  
     -4.092193  8.659066  4.282035            0           0           0  
     -1.359600  8.659130  4.282003            0           0           0  
      2.725840  6.285995  4.279712            0           0           0  
      5.459677  6.289160  4.277357            0           0           0  
      1.361936  8.649722  4.284102            0           0           0  
      4.089869  8.649774  4.284090            0           0           0  
      1.354719  0.779120  6.354553            0           0           0  
      4.096911  0.779164  6.354584            0           0           0  
     -0.007777  3.134942  6.361982            0           0           0  
      2.725813  3.083988  6.325100            0           0           0  
      6.814780  0.792015  6.352076            0           0           0  
      9.540286  0.792049  6.352075            0           0           0  
      5.459385  3.134975  6.362025            0           0           0  
      8.177547  3.152259  6.359790            0           0           0  
     -1.350779  5.509621  6.354665            0           0           0  
      1.393216  5.498688  6.430153            0           0           0  
     -2.725843  7.854404  6.356402            0           0           0  
     -0.004271  7.875791  6.351655            0           0           0  
      4.058013  5.498669  6.430585            0           0           0  
      6.802349  5.509628  6.354717            0           0           0  
      2.725862  7.933748  6.342872            0           0           0  
      5.455913  7.875717  6.351704            0           0           0  
      2.725111  5.477077  8.066393     0.408525   -0.000066   -0.001737  
      2.724753  6.307122  8.664007    -0.590205   -0.000595   -0.000752  
      2.724203  4.654260  8.672815    -0.696246    0.000861   -0.001733  
 
   5 f  =   19.347078 THz   121.561278 2PiTHz  645.349068 cm-1    80.013051 meV
             X         Y         Z           dx          dy          dz
     -0.000054  1.573802  0.000000            0           0           0  
      2.725796  1.573802  0.000000            0           0           0  
     -1.362980  3.934457  0.000000            0           0           0  
      1.362870  3.934457  0.000000            0           0           0  
      5.451646  1.573802  0.000000            0           0           0  
      8.177495  1.573802  0.000000            0           0           0  
      4.088720  3.934457  0.000000            0           0           0  
      6.814570  3.934457  0.000000            0           0           0  
     -2.725905  6.295113  0.000000            0           0           0  
     -0.000055  6.295113  0.000000            0           0           0  
     -4.088830  8.655768  0.000000            0           0           0  
     -1.362980  8.655768  0.000000            0           0           0  
      2.725796  6.295113  0.000000            0           0           0  
      5.451645  6.295113  0.000000            0           0           0  
      1.362870  8.655768  0.000000            0           0           0  
      4.088720  8.655768  0.000000            0           0           0  
      1.362980  0.786854  2.150895            0           0           0  
      4.088830  0.786854  2.150895            0           0           0  
      0.000054  3.147509  2.150895            0           0           0  
      2.725905  3.147509  2.150895            0           0           0  
      6.814680  0.786854  2.150895            0           0           0  
      9.540530  0.786854  2.150895            0           0           0  
      5.451755  3.147509  2.150895            0           0           0  
      8.177606  3.147509  2.150895            0           0           0  
     -1.362871  5.508164  2.150895            0           0           0  
      1.362980  5.508164  2.150895            0           0           0  
     -2.725795  7.868820  2.150895            0           0           0  
      0.000055  7.868820  2.150895            0           0           0  
      4.088830  5.508164  2.150895            0           0           0  
      6.814680  5.508164  2.150895            0           0           0  
      2.725905  7.868820  2.150895            0           0           0  
      5.451756  7.868820  2.150895            0           0           0  
      0.002037  1.575334  4.281227            0           0           0  
      2.725850  1.555360  4.283069            0           0           0  
     -1.360631  3.934991  4.280683            0           0           0  
      1.352875  3.941593  4.285791            0           0           0  
      5.449672  1.575339  4.281216            0           0           0  
      8.177556  1.577844  4.280246            0           0           0  
      4.098807  3.941608  4.285808            0           0           0  
      6.812383  3.935002  4.280701            0           0           0  
     -2.725863  6.288728  4.289326            0           0           0  
     -0.008080  6.289270  4.277284            0           0           0  
     -4.092193  8.659066  4.282035            0           0           0  
     -1.359600  8.659130  4.282003            0           0           0  
      2.725840  6.285995  4.279712            0           0           0  
      5.459677  6.289160  4.277357            0           0           0  
      1.361936  8.649722  4.284102            0           0           0  
      4.089869  8.649774  4.284090            0           0           0  
      1.354719  0.779120  6.354553            0           0           0  
      4.096911  0.779164  6.354584            0           0           0  
     -0.007777  3.134942  6.361982            0           0           0  
      2.725813  3.083988  6.325100            0           0           0  
      6.814780  0.792015  6.352076            0           0           0  
      9.540286  0.792049  6.352075            0           0           0  
      5.459385  3.134975  6.362025            0           0           0  
      8.177547  3.152259  6.359790            0           0           0  
     -1.350779  5.509621  6.354665            0           0           0  
      1.393216  5.498688  6.430153            0           0           0  
     -2.725843  7.854404  6.356402            0           0           0  
     -0.004271  7.875791  6.351655            0           0           0  
      4.058013  5.498669  6.430585            0           0           0  
      6.802349  5.509628  6.354717            0           0           0  
      2.725862  7.933748  6.342872            0           0           0  
      5.455913  7.875717  6.351704            0           0           0  
      2.725111  5.477077  8.066393     0.001005    0.003624   -0.008453  
      2.724753  6.307122  8.664007    -0.762409   -0.003660    0.004957  
      2.724203  4.654260  8.672815     0.646914   -0.005795   -0.008750  
 
   6 f  =   18.134111 THz   113.939977 2PiTHz  604.888819 cm-1    74.996622 meV
             X         Y         Z           dx          dy          dz
     -0.000054  1.573802  0.000000            0           0           0  
      2.725796  1.573802  0.000000            0           0           0  
     -1.362980  3.934457  0.000000            0           0           0  
      1.362870  3.934457  0.000000            0           0           0  
      5.451646  1.573802  0.000000            0           0           0  
      8.177495  1.573802  0.000000            0           0           0  
      4.088720  3.934457  0.000000            0           0           0  
      6.814570  3.934457  0.000000            0           0           0  
     -2.725905  6.295113  0.000000            0           0           0  
     -0.000055  6.295113  0.000000            0           0           0  
     -4.088830  8.655768  0.000000            0           0           0  
     -1.362980  8.655768  0.000000            0           0           0  
      2.725796  6.295113  0.000000            0           0           0  
      5.451645  6.295113  0.000000            0           0           0  
      1.362870  8.655768  0.000000            0           0           0  
      4.088720  8.655768  0.000000            0           0           0  
      1.362980  0.786854  2.150895            0           0           0  
      4.088830  0.786854  2.150895            0           0           0  
      0.000054  3.147509  2.150895            0           0           0  
      2.725905  3.147509  2.150895            0           0           0  
      6.814680  0.786854  2.150895            0           0           0  
      9.540530  0.786854  2.150895            0           0           0  
      5.451755  3.147509  2.150895            0           0           0  
      8.177606  3.147509  2.150895            0           0           0  
     -1.362871  5.508164  2.150895            0           0           0  
      1.362980  5.508164  2.150895            0           0           0  
     -2.725795  7.868820  2.150895            0           0           0  
      0.000055  7.868820  2.150895            0           0           0  
      4.088830  5.508164  2.150895            0           0           0  
      6.814680  5.508164  2.150895            0           0           0  
      2.725905  7.868820  2.150895            0           0           0  
      5.451756  7.868820  2.150895            0           0           0  
      0.002037  1.575334  4.281227            0           0           0  
      2.725850  1.555360  4.283069            0           0           0  
     -1.360631  3.934991  4.280683            0           0           0  
      1.352875  3.941593  4.285791            0           0           0  
      5.449672  1.575339  4.281216            0           0           0  
      8.177556  1.577844  4.280246            0           0           0  
      4.098807  3.941608  4.285808            0           0           0  
      6.812383  3.935002  4.280701            0           0           0  
     -2.725863  6.288728  4.289326            0           0           0  
     -0.008080  6.289270  4.277284            0           0           0  
     -4.092193  8.659066  4.282035            0           0           0  
     -1.359600  8.659130  4.282003            0           0           0  
      2.725840  6.285995  4.279712            0           0           0  
      5.459677  6.289160  4.277357            0           0           0  
      1.361936  8.649722  4.284102            0           0           0  
      4.089869  8.649774  4.284090            0           0           0  
      1.354719  0.779120  6.354553            0           0           0  
      4.096911  0.779164  6.354584            0           0           0  
     -0.007777  3.134942  6.361982            0           0           0  
      2.725813  3.083988  6.325100            0           0           0  
      6.814780  0.792015  6.352076            0           0           0  
      9.540286  0.792049  6.352075            0           0           0  
      5.459385  3.134975  6.362025            0           0           0  
      8.177547  3.152259  6.359790            0           0           0  
     -1.350779  5.509621  6.354665            0           0           0  
      1.393216  5.498688  6.430153            0           0           0  
     -2.725843  7.854404  6.356402            0           0           0  
     -0.004271  7.875791  6.351655            0           0           0  
      4.058013  5.498669  6.430585            0           0           0  
      6.802349  5.509628  6.354717            0           0           0  
      2.725862  7.933748  6.342872            0           0           0  
      5.455913  7.875717  6.351704            0           0           0  
      2.725111  5.477077  8.066393     0.000414   -0.359440    0.022926  
      2.724753  6.307122  8.664007    -0.009719    0.328037   -0.572449  
      2.724203  4.654260  8.672815     0.007777    0.327659    0.572237  
 
   7 f  =   14.095950 THz    88.567466 2PiTHz  470.190281 cm-1    58.296139 meV
             X         Y         Z           dx          dy          dz
     -0.000054  1.573802  0.000000            0           0           0  
      2.725796  1.573802  0.000000            0           0           0  
     -1.362980  3.934457  0.000000            0           0           0  
      1.362870  3.934457  0.000000            0           0           0  
      5.451646  1.573802  0.000000            0           0           0  
      8.177495  1.573802  0.000000            0           0           0  
      4.088720  3.934457  0.000000            0           0           0  
      6.814570  3.934457  0.000000            0           0           0  
     -2.725905  6.295113  0.000000            0           0           0  
     -0.000055  6.295113  0.000000            0           0           0  
     -4.088830  8.655768  0.000000            0           0           0  
     -1.362980  8.655768  0.000000            0           0           0  
      2.725796  6.295113  0.000000            0           0           0  
      5.451645  6.295113  0.000000            0           0           0  
      1.362870  8.655768  0.000000            0           0           0  
      4.088720  8.655768  0.000000            0           0           0  
      1.362980  0.786854  2.150895            0           0           0  
      4.088830  0.786854  2.150895            0           0           0  
      0.000054  3.147509  2.150895            0           0           0  
      2.725905  3.147509  2.150895            0           0           0  
      6.814680  0.786854  2.150895            0           0           0  
      9.540530  0.786854  2.150895            0           0           0  
      5.451755  3.147509  2.150895            0           0           0  
      8.177606  3.147509  2.150895            0           0           0  
     -1.362871  5.508164  2.150895            0           0           0  
      1.362980  5.508164  2.150895            0           0           0  
     -2.725795  7.868820  2.150895            0           0           0  
      0.000055  7.868820  2.150895            0           0           0  
      4.088830  5.508164  2.150895            0           0           0  
      6.814680  5.508164  2.150895            0           0           0  
      2.725905  7.868820  2.150895            0           0           0  
      5.451756  7.868820  2.150895            0           0           0  
      0.002037  1.575334  4.281227            0           0           0  
      2.725850  1.555360  4.283069            0           0           0  
     -1.360631  3.934991  4.280683            0           0           0  
      1.352875  3.941593  4.285791            0           0           0  
      5.449672  1.575339  4.281216            0           0           0  
      8.177556  1.577844  4.280246            0           0           0  
      4.098807  3.941608  4.285808            0           0           0  
      6.812383  3.935002  4.280701            0           0           0  
     -2.725863  6.288728  4.289326            0           0           0  
     -0.008080  6.289270  4.277284            0           0           0  
     -4.092193  8.659066  4.282035            0           0           0  
     -1.359600  8.659130  4.282003            0           0           0  
      2.725840  6.285995  4.279712            0           0           0  
      5.459677  6.289160  4.277357            0           0           0  
      1.361936  8.649722  4.284102            0           0           0  
      4.089869  8.649774  4.284090            0           0           0  
      1.354719  0.779120  6.354553            0           0           0  
      4.096911  0.779164  6.354584            0           0           0  
     -0.007777  3.134942  6.361982            0           0           0  
      2.725813  3.083988  6.325100            0           0           0  
      6.814780  0.792015  6.352076            0           0           0  
      9.540286  0.792049  6.352075            0           0           0  
      5.459385  3.134975  6.362025            0           0           0  
      8.177547  3.152259  6.359790            0           0           0  
     -1.350779  5.509621  6.354665            0           0           0  
      1.393216  5.498688  6.430153            0           0           0  
     -2.725843  7.854404  6.356402            0           0           0  
     -0.004271  7.875791  6.351655            0           0           0  
      4.058013  5.498669  6.430585            0           0           0  
      6.802349  5.509628  6.354717            0           0           0  
      2.725862  7.933748  6.342872            0           0           0  
      5.455913  7.875717  6.351704            0           0           0  
      2.725111  5.477077  8.066393    -0.001222   -0.003160   -0.937688  
      2.724753  6.307122  8.664007     0.007774    0.007204   -0.257939  
      2.724203  4.654260  8.672815    -0.004104    0.010313   -0.232298  
 
   8 f  =    9.279598 THz    58.305437 2PiTHz  309.534086 cm-1    38.377318 meV
             X         Y         Z           dx          dy          dz
     -0.000054  1.573802  0.000000            0           0           0  
      2.725796  1.573802  0.000000            0           0           0  
     -1.362980  3.934457  0.000000            0           0           0  
      1.362870  3.934457  0.000000            0           0           0  
      5.451646  1.573802  0.000000            0           0           0  
      8.177495  1.573802  0.000000            0           0           0  
      4.088720  3.934457  0.000000            0           0           0  
      6.814570  3.934457  0.000000            0           0           0  
     -2.725905  6.295113  0.000000            0           0           0  
     -0.000055  6.295113  0.000000            0           0           0  
     -4.088830  8.655768  0.000000            0           0           0  
     -1.362980  8.655768  0.000000            0           0           0  
      2.725796  6.295113  0.000000            0           0           0  
      5.451645  6.295113  0.000000            0           0           0  
      1.362870  8.655768  0.000000            0           0           0  
      4.088720  8.655768  0.000000            0           0           0  
      1.362980  0.786854  2.150895            0           0           0  
      4.088830  0.786854  2.150895            0           0           0  
      0.000054  3.147509  2.150895            0           0           0  
      2.725905  3.147509  2.150895            0           0           0  
      6.814680  0.786854  2.150895            0           0           0  
      9.540530  0.786854  2.150895            0           0           0  
      5.451755  3.147509  2.150895            0           0           0  
      8.177606  3.147509  2.150895            0           0           0  
     -1.362871  5.508164  2.150895            0           0           0  
      1.362980  5.508164  2.150895            0           0           0  
     -2.725795  7.868820  2.150895            0           0           0  
      0.000055  7.868820  2.150895            0           0           0  
      4.088830  5.508164  2.150895            0           0           0  
      6.814680  5.508164  2.150895            0           0           0  
      2.725905  7.868820  2.150895            0           0           0  
      5.451756  7.868820  2.150895            0           0           0  
      0.002037  1.575334  4.281227            0           0           0  
      2.725850  1.555360  4.283069            0           0           0  
     -1.360631  3.934991  4.280683            0           0           0  
      1.352875  3.941593  4.285791            0           0           0  
      5.449672  1.575339  4.281216            0           0           0  
      8.177556  1.577844  4.280246            0           0           0  
      4.098807  3.941608  4.285808            0           0           0  
      6.812383  3.935002  4.280701            0           0           0  
     -2.725863  6.288728  4.289326            0           0           0  
     -0.008080  6.289270  4.277284            0           0           0  
     -4.092193  8.659066  4.282035            0           0           0  
     -1.359600  8.659130  4.282003            0           0           0  
      2.725840  6.285995  4.279712            0           0           0  
      5.459677  6.289160  4.277357            0           0           0  
      1.361936  8.649722  4.284102            0           0           0  
      4.089869  8.649774  4.284090            0           0           0  
      1.354719  0.779120  6.354553            0           0           0  
      4.096911  0.779164  6.354584            0           0           0  
     -0.007777  3.134942  6.361982            0           0           0  
      2.725813  3.083988  6.325100            0           0           0  
      6.814780  0.792015  6.352076            0           0           0  
      9.540286  0.792049  6.352075            0           0           0  
      5.459385  3.134975  6.362025            0           0           0  
      8.177547  3.152259  6.359790            0           0           0  
     -1.350779  5.509621  6.354665            0           0           0  
      1.393216  5.498688  6.430153            0           0           0  
     -2.725843  7.854404  6.356402            0           0           0  
     -0.004271  7.875791  6.351655            0           0           0  
      4.058013  5.498669  6.430585            0           0           0  
      6.802349  5.509628  6.354717            0           0           0  
      2.725862  7.933748  6.342872            0           0           0  
      5.455913  7.875717  6.351704            0           0           0  
      2.725111  5.477077  8.066393     0.912719    0.006928   -0.000367  
      2.724753  6.307122  8.664007     0.265002    0.002469   -0.000608  
      2.724203  4.654260  8.672815     0.310900    0.002016    0.000804  
 
   9 f  =    5.546584 THz    34.850218 2PiTHz  185.014141 cm-1    22.938820 meV
             X         Y         Z           dx          dy          dz
     -0.000054  1.573802  0.000000            0           0           0  
      2.725796  1.573802  0.000000            0           0           0  
     -1.362980  3.934457  0.000000            0           0           0  
      1.362870  3.934457  0.000000            0           0           0  
      5.451646  1.573802  0.000000            0           0           0  
      8.177495  1.573802  0.000000            0           0           0  
      4.088720  3.934457  0.000000            0           0           0  
      6.814570  3.934457  0.000000            0           0           0  
     -2.725905  6.295113  0.000000            0           0           0  
     -0.000055  6.295113  0.000000            0           0           0  
     -4.088830  8.655768  0.000000            0           0           0  
     -1.362980  8.655768  0.000000            0           0           0  
      2.725796  6.295113  0.000000            0           0           0  
      5.451645  6.295113  0.000000            0           0           0  
      1.362870  8.655768  0.000000            0           0           0  
      4.088720  8.655768  0.000000            0           0           0  
      1.362980  0.786854  2.150895            0           0           0  
      4.088830  0.786854  2.150895            0           0           0  
      0.000054  3.147509  2.150895            0           0           0  
      2.725905  3.147509  2.150895            0           0           0  
      6.814680  0.786854  2.150895            0           0           0  
      9.540530  0.786854  2.150895            0           0           0  
      5.451755  3.147509  2.150895            0           0           0  
      8.177606  3.147509  2.150895            0           0           0  
     -1.362871  5.508164  2.150895            0           0           0  
      1.362980  5.508164  2.150895            0           0           0  
     -2.725795  7.868820  2.150895            0           0           0  
      0.000055  7.868820  2.150895            0           0           0  
      4.088830  5.508164  2.150895            0           0           0  
      6.814680  5.508164  2.150895            0           0           0  
      2.725905  7.868820  2.150895            0           0           0  
      5.451756  7.868820  2.150895            0           0           0  
      0.002037  1.575334  4.281227            0           0           0  
      2.725850  1.555360  4.283069            0           0           0  
     -1.360631  3.934991  4.280683            0           0           0  
      1.352875  3.941593  4.285791            0           0           0  
      5.449672  1.575339  4.281216            0           0           0  
      8.177556  1.577844  4.280246            0           0           0  
      4.098807  3.941608  4.285808            0           0           0  
      6.812383  3.935002  4.280701            0           0           0  
     -2.725863  6.288728  4.289326            0           0           0  
     -0.008080  6.289270  4.277284            0           0           0  
     -4.092193  8.659066  4.282035            0           0           0  
     -1.359600  8.659130  4.282003            0           0           0  
      2.725840  6.285995  4.279712            0           0           0  
      5.459677  6.289160  4.277357            0           0           0  
      1.361936  8.649722  4.284102            0           0           0  
      4.089869  8.649774  4.284090            0           0           0  
      1.354719  0.779120  6.354553            0           0           0  
      4.096911  0.779164  6.354584            0           0           0  
     -0.007777  3.134942  6.361982            0           0           0  
      2.725813  3.083988  6.325100            0           0           0  
      6.814780  0.792015  6.352076            0           0           0  
      9.540286  0.792049  6.352075            0           0           0  
      5.459385  3.134975  6.362025            0           0           0  
      8.177547  3.152259  6.359790            0           0           0  
     -1.350779  5.509621  6.354665            0           0           0  
      1.393216  5.498688  6.430153            0           0           0  
     -2.725843  7.854404  6.356402            0           0           0  
     -0.004271  7.875791  6.351655            0           0           0  
      4.058013  5.498669  6.430585            0           0           0  
      6.802349  5.509628  6.354717            0           0           0  
      2.725862  7.933748  6.342872            0           0           0  
      5.455913  7.875717  6.351704            0           0           0  
      2.725111  5.477077  8.066393     0.006973   -0.886847   -0.005691  
      2.724753  6.307122  8.664007     0.002959   -0.310891    0.100533  
      2.724203  4.654260  8.672815     0.001703   -0.310882   -0.100007  
 
 Finite differences POTIM=  1.500000000000000E-002
  LATTYP: Found a hexagonal cell.
 ALAT       =    10.9034004211
 C/A-ratio  =     1.6006841223
  
  Lattice vectors:
  
 A1 = (  10.9034004211,   0.0000000000,   0.0000000000)
 A2 = (  -5.4517002106,   9.4426217523,   0.0000000000)
 A3 = (   0.0000000000,   0.0000000000,  17.4528999329)


Analysis of symmetry for initial positions (statically):
=====================================================================
 Subroutine PRICEL returns:
 Original cell was already a primitive cell.
 

 Routine SETGRP: Setting up the symmetry group for a 
 hexagonal supercell.


 Subroutine GETGRP returns: Found  1 space group operations
 (whereof  1 operations were pure point group operations)
 out of a pool of 24 trial point group operations.


The static configuration has the point symmetry C_1 .


Analysis of symmetry for dynamics (positions and initial velocities):
=====================================================================
 Subroutine PRICEL returns:
 Original cell was already a primitive cell.
 

 Routine SETGRP: Setting up the symmetry group for a 
 hexagonal supercell.


 Subroutine GETGRP returns: Found  1 space group operations
 (whereof  1 operations were pure point group operations)
 out of a pool of 24 trial point group operations.


The dynamic configuration has the point symmetry C_1 .


Analysis of constrained symmetry for selective dynamics:
=====================================================================
 Subroutine PRICEL returns:
 Original cell was already a primitive cell.
 

 Routine SETGRP: Setting up the symmetry group for a 
 hexagonal supercell.


 Subroutine GETGRP returns: Found  1 space group operations
 (whereof  1 operations were pure point group operations)
 out of a pool of 24 trial point group operations.


The constrained configuration has the point symmetry C_1 .


 Subroutine INISYM returns: Found  1 space group operations
 (whereof  1 operations are pure point group operations),
 and found     1 'primitive' translations

 
 KPOINTS: Kpoints                                 

Automatic generation of k-mesh.
 Grid dimensions read from file:
 generate k-points for:    1    1    1

 Generating k-lattice:

  Cartesian coordinates                     Fractional coordinates (reciprocal lattice)
     0.091714508  0.052951396  0.000000000     1.000000000  0.000000000  0.000000000
     0.000000000  0.105902791  0.000000000     0.000000000  1.000000000  0.000000000
     0.000000000  0.000000000  0.057297068     0.000000000  0.000000000  1.000000000

  Length of vectors
     0.105902791  0.105902791  0.057297068

  Shift w.r.t. Gamma in fractional coordinates (k-lattice)
     0.000000000  0.000000000  0.000000000

 
 Subroutine IBZKPT returns following result:
 ===========================================
 
 Found      1 irreducible k-points:
 
 Following reciprocal coordinates:
            Coordinates               Weight
  0.000000  0.000000  0.000000      1.000000
 
 Following cartesian coordinates:
            Coordinates               Weight
  0.000000  0.000000  0.000000      1.000000
 
     LOOP+:  cpu time     28.0074: real time     29.3385
    4ORBIT:  cpu time      0.0000: real time      0.0000



 total charge

# of ion       s       p       d       tot
------------------------------------------
    1        0.610   0.534   6.501   7.644
    2        0.610   0.531   6.506   7.647
    3        0.608   0.536   6.499   7.643
    4        0.605   0.532   6.508   7.646
    5        0.610   0.534   6.501   7.644
    6        0.609   0.534   6.496   7.640
    7        0.605   0.532   6.507   7.645
    8        0.608   0.536   6.499   7.644
    9        0.608   0.533   6.504   7.645
   10        0.605   0.536   6.503   7.645
   11        0.607   0.536   6.501   7.644
   12        0.607   0.536   6.502   7.644
   13        0.604   0.540   6.496   7.640
   14        0.605   0.536   6.502   7.644
   15        0.609   0.535   6.499   7.643
   16        0.609   0.535   6.499   7.643
   17        0.632   0.774   6.569   7.975
   18        0.632   0.774   6.570   7.976
   19        0.630   0.774   6.568   7.972
   20        0.629   0.770   6.560   7.959
   21        0.630   0.771   6.571   7.972
   22        0.630   0.771   6.571   7.972
   23        0.630   0.774   6.567   7.972
   24        0.631   0.772   6.572   7.975
   25        0.631   0.774   6.567   7.972
   26        0.631   0.774   6.567   7.973
   27        0.629   0.774   6.564   7.966
   28        0.632   0.774   6.564   7.970
   29        0.631   0.774   6.567   7.973
   30        0.631   0.774   6.567   7.972
   31        0.630   0.776   6.564   7.969
   32        0.632   0.774   6.564   7.970
   33        0.642   0.806   6.594   8.041
   34        0.647   0.817   6.589   8.053
   35        0.642   0.805   6.594   8.041
   36        0.639   0.794   6.581   8.015
   37        0.642   0.806   6.594   8.041
   38        0.642   0.799   6.596   8.036
   39        0.639   0.794   6.581   8.015
   40        0.642   0.805   6.594   8.041
   41        0.644   0.805   6.588   8.037
   42        0.643   0.796   6.594   8.033
   43        0.643   0.802   6.597   8.042
   44        0.643   0.802   6.597   8.042
   45        0.633   0.790   6.568   7.991
   46        0.643   0.796   6.594   8.032
   47        0.645   0.807   6.591   8.043
   48        0.645   0.807   6.591   8.043
   49        0.625   0.570   6.543   7.738
   50        0.625   0.570   6.542   7.737
   51        0.623   0.551   6.546   7.720
   52        0.623   0.561   6.575   7.760
   53        0.629   0.571   6.545   7.745
   54        0.629   0.571   6.545   7.744
   55        0.623   0.551   6.546   7.720
   56        0.626   0.552   6.539   7.716
   57        0.622   0.550   6.547   7.719
   58        0.598   0.657   6.551   7.806
   59        0.617   0.556   6.546   7.719
   60        0.623   0.552   6.547   7.722
   61        0.598   0.657   6.551   7.806
   62        0.622   0.549   6.547   7.718
   63        0.625   0.553   6.573   7.751
   64        0.622   0.552   6.547   7.721
   65        1.219   2.634   0.000   3.853
   66        0.633   0.082   0.000   0.715
   67        0.644   0.086   0.000   0.731
--------------------------------------------------
tot         42.508  45.686 419.327 507.520
 

 total amount of memory used by VASP MPI-rank0    94435. kBytes
=======================================================================

   base      :      30000. kBytes
   nonlr-proj:      31594. kBytes
   fftplans  :       4485. kBytes
   grid      :      19825. kBytes
   one-center:       1041. kBytes
   wavefun   :       7490. kBytes
 
  
  
 General timing and accounting informations for this job:
 ========================================================
  
                  Total CPU time used (sec):      543.160
                            User time (sec):      537.975
                          System time (sec):        5.185
                         Elapsed time (sec):      649.710
  
                   Maximum memory used (kb):      481920.
                   Average memory used (kb):          N/A
  
                          Minor page faults:       300689
                          Major page faults:           59
                 Voluntary context switches:       126585
