Ru  N  H 
 1.0000000000000000
    10.9034004211000006    0.0000000000000000    0.0000000000000000
    -5.4517002106000003    9.4426217522999991    0.0000000000000000
     0.0000000000000000    0.0000000000000000   17.4528999328999994
 Ru  N   H  
  64   1   2
Selective dynamics
Cartesian
 -0.0000544788485319  1.5738017580132171  0.0000000000000000   F   F   F
  2.7257955064890922  1.5738017580132171  0.0000000000000000   F   F   F
 -1.3629796459841881  3.9344572999570309  0.0000000000000000   F   F   F
  1.3628704592908125  3.9344572999570309  0.0000000000000000   F   F   F
  5.4516458516388440  1.5738017580132171  0.0000000000000000   F   F   F
  8.1774949974146054  1.5738017580132171  0.0000000000000000   F   F   F
  4.0887203246909838  3.9344572999570309  0.0000000000000000   F   F   F
  6.8145704299659835  3.9344572999570309  0.0000000000000000   F   F   F
 -2.7259047040859468  6.2951130874090309  0.0000000000000000   F   F   F
 -0.0000545988109470  6.2951130874090309  0.0000000000000000   F   F   F
 -4.0888299966107748  8.6557683932873832  0.0000000000000000   F   F   F
 -1.3629798913357751  8.6557683932873832  0.0000000000000000   F   F   F
  2.7257955064640536  6.2951130874090309  0.0000000000000000   F   F   F
  5.4516448921146434  6.2951130874090309  0.0000000000000000   F   F   F
  1.3628702139392246  8.6557683932873832  0.0000000000000000   F   F   F
  4.0887198503680056  8.6557683932873832  0.0000000000000000   F   F   F
  1.3629795369252520  0.7868536706191268  2.1508953528248398   F   F   F
  4.0888295222628770  0.7868536706191268  2.1508953528248398   F   F   F
  0.0000544842752517  3.1475093353170678  2.1508953528248398   F   F   F
  2.7259046985842650  3.1475093353170678  2.1508953528248398   F   F   F
  6.8146796275378767  0.7868536706191268  2.1508953528248398   F   F   F
  9.5405302016590952  0.7868536706191268  2.1508953528248398   F   F   F
  5.4517545748878762  3.1475093353170678  2.1508953528248398   F   F   F
  8.1776056287586769  3.1475093353170678  2.1508953528248398   F   F   F
 -1.3628705738264675  5.5081644051298220  2.1508953528248398   F   F   F
  1.3629796513859858  5.5081644051298220  2.1508953528248398   F   F   F
 -2.7257952721159446  7.8688201925818220  2.1508953528248398   F   F   F
  0.0000548331590551  7.8688201925818220  2.1508953528248398   F   F   F
  4.0888299965357380  5.5081644051298220  2.1508953528248398   F   F   F
  6.8146801018107386  5.5081644051298220  2.1508953528248398   F   F   F
  2.7259049384340557  7.8688201925818220  2.1508953528248398   F   F   F
  5.4517555234587141  7.8688201925818220  2.1508953528248398   F   F   F
  0.0020365987464160  1.5753343709643994  4.2812271471364500   F   F   F
  2.7258495414679209  1.5553598802946740  4.2830689011832375   F   F   F
 -1.3606308294180351  3.9349911589475983  4.2806827665905738   F   F   F
  1.3528748753275588  3.9415930515753370  4.2857908561480338   F   F   F
  5.4496723526463082  1.5753389901876302  4.2812157508057727   F   F   F
  8.1775561101836924  1.5778437819630726  4.2802462873465075   F   F   F
  4.0988072016113648  3.9416076287491850  4.2858083184338129   F   F   F
  6.8123833982841262  3.9350019370069504  4.2807007194706479   F   F   F
 -2.7258631396870010  6.2887276539417032  4.2893260789436978   F   F   F
 -0.0080797924995974  6.2892701691004067  4.2772836622049510   F   F   F
 -4.0921932105404544  8.6590655554909404  4.2820350405075303   F   F   F
 -1.3595995665474976  8.6591295975686400  4.2820033624045104   F   F   F
  2.7258399728498244  6.2859948408876534  4.2797124705437293   F   F   F
  5.4596770645557395  6.2891595311658124  4.2773567483844710   F   F   F
  1.3619361397623981  8.6497220082312651  4.2841016834424854   F   F   F
  4.0898688488981163  8.6497736764953395  4.2840895501653637   F   F   F
  1.3547190047412816  0.7791197629074696  6.3545530050825363   F   F   F
  4.0969112200957101  0.7791642065799367  6.3545843881990711   F   F   F
 -0.0077771707482532  3.1349418226656578  6.3619815004620310   F   F   F
  2.7258131767144969  3.0839875996985642  6.3251004128396806   F   F   F
  6.8147800430586383  0.7920147692075534  6.3520756454463552   F   F   F
  9.5402864461538694  0.7920486802567017  6.3520749770700364   F   F   F
  5.4593851352715799  3.1349752510357756  6.3620254520968027   F   F   F
  8.1775467026514335  3.1522592932054478  6.3597898374323547   F   F   F
 -1.3507793467602776  5.5096205588273639  6.3546653648713294   F   F   F
  1.3932157011630855  5.4986877466094262  6.4301527228509734   F   F   F
 -2.7258431384244313  7.8544041105083684  6.3564021604739311   F   F   F
 -0.0042711089479530  7.8757910207278661  6.3516553359861474   F   F   F
  4.0580130526259781  5.4986687365997549  6.4305845118986573   F   F   F
  6.8023488137734258  5.5096276933943402  6.3547168127722671   F   F   F
  2.7258621794008295  7.9337482490143589  6.3428724960557235   F   F   F
  5.4559131738699858  7.8757165465851280  6.3517039347444513   F   F   F
  2.7251108586676458  5.4770774616381113  8.0663929955377487   T   T   T
  2.7247533860910700  6.3071224207781134  8.6640072201479423   T   T   T
  2.7242034591147233  4.6542595627488650  8.6728151207597808   T   T   T
