Ru(001)                                 
   1.00000000000000     
    10.9034004211000006    0.0000000000000000    0.0000000000000000
    -5.4517002106000003    9.4426217522999991    0.0000000000000000
     0.0000000000000000    0.0000000000000000   17.4528999328999994
   Ru   N    H 
    64     1     3
Selective dynamics
Direct
  0.0833300030000004  0.1666699989999998  0.0000000000000000   F   F   F
  0.3333299920000030  0.1666699989999998  0.0000000000000000   F   F   F
  0.0833299980000035  0.4166700099999971  0.0000000000000000   F   F   F
  0.3333299980000035  0.4166700099999971  0.0000000000000000   F   F   F
  0.5833300139999977  0.1666699989999998  0.0000000000000000   F   F   F
  0.8333299259999976  0.1666699989999998  0.0000000000000000   F   F   F
  0.5833299760000017  0.4166700099999971  0.0000000000000000   F   F   F
  0.8333299760000017  0.4166700099999971  0.0000000000000000   F   F   F
  0.0833300159999979  0.6666700469999967  0.0000000000000000   F   F   F
  0.3333300159999979  0.6666700469999967  0.0000000000000000   F   F   F
  0.0833299869999991  0.9166700330000026  0.0000000000000000   F   F   F
  0.3333299869999991  0.9166700330000026  0.0000000000000000   F   F   F
  0.5833300159999979  0.6666700469999967  0.0000000000000000   F   F   F
  0.8333299499999995  0.6666700469999967  0.0000000000000000   F   F   F
  0.5833299869999991  0.9166700330000026  0.0000000000000000   F   F   F
  0.8333299439999990  0.9166700330000026  0.0000000000000000   F   F   F
  0.1666699969999996  0.0833299999999966  0.1232399980000025   F   F   F
  0.4166699860000023  0.0833299999999966  0.1232399980000025   F   F   F
  0.1666700090000006  0.3333300239999986  0.1232399980000025   F   F   F
  0.4166700190000014  0.3333300239999986  0.1232399980000025   F   F   F
  0.6666699860000023  0.0833299999999966  0.1232399980000025   F   F   F
  0.9166700290000023  0.0833299999999966  0.1232399980000025   F   F   F
  0.6666699980000033  0.3333300239999986  0.1232399980000025   F   F   F
  0.9166700849999998  0.3333300239999986  0.1232399980000025   F   F   F
  0.1666699889999990  0.5833299849999989  0.1232399980000025   F   F   F
  0.4166700000000034  0.5833299849999989  0.1232399980000025   F   F   F
  0.1666700399999996  0.8333300219999984  0.1232399980000025   F   F   F
  0.4166700399999996  0.8333300219999984  0.1232399980000025   F   F   F
  0.6666700219999981  0.5833299849999989  0.1232399980000025   F   F   F
  0.9166700219999981  0.5833299849999989  0.1232399980000025   F   F   F
  0.6666700399999996  0.8333300219999984  0.1232399980000025   F   F   F
  0.9166700840000033  0.8333300219999984  0.1232399980000025   F   F   F
  0.0833576802038240  0.1666690890432278  0.2454868519812305   T   T   T
  0.3334036874640440  0.1669306544322305  0.2456832357740189   T   T   T
  0.0833666113010103  0.4166644019120608  0.2454864918809862   T   T   T
  0.3335913107192154  0.4167765747675750  0.2451786931597444   T   T   T
  0.5835674054601787  0.1669105924116429  0.2456765010633555   T   T   T
  0.8333453549510745  0.1666517560251872  0.2454830819838317   T   T   T
  0.5832229044015007  0.4164325907102888  0.2456275725578494   T   T   T
  0.8332379859465516  0.4167821250411815  0.2451634110899244   T   T   T
  0.0830978105735322  0.6664452913176386  0.2456788037727523   T   T   T
  0.3334031725251742  0.6664471337239586  0.2456783185829251   T   T   T
  0.0830989720385316  0.9166252154416940  0.2456767062522133   T   T   T
  0.3333564323370614  0.9166582868253489  0.2451860350148212   T   T   T
  0.5832311045540995  0.6667756216804553  0.2456312676185666   T   T   T
  0.8335908677133884  0.6667792027959359  0.2456142076912320   T   T   T
  0.5835687540324547  0.9166205364832343  0.2456801934328153   T   T   T
  0.8332225404127921  0.9164239880064778  0.2451693281327587   T   T   T
  0.1664881247763125  0.0835916894018737  0.3643244067637360   T   T   T
  0.4175574714393386  0.0850206113552941  0.3642120550510533   T   T   T
  0.1687069903084273  0.3343341710935744  0.3644387585098954   T   T   T
  0.4138421988446402  0.3304917227044979  0.3641955522691503   T   T   T
  0.6672037415147152  0.0835551025348509  0.3643222531835189   T   T   T
  0.9156893042761998  0.0813080599363130  0.3644316923961907   T   T   T
  0.6667038314906830  0.3304237801544027  0.3641523918109180   T   T   T
  0.9156869791694671  0.3343363045652761  0.3644296290215682   T   T   T
  0.1664802344335848  0.5828320793329351  0.3643222299691462   T   T   T
  0.4138292280384554  0.5832879731539552  0.3641821128880148   T   T   T
  0.1650077029253063  0.8324857532377548  0.3642061853794593   T   T   T
  0.4175621799158419  0.8324648272038607  0.3642125786512076   T   T   T
  0.6668249050728675  0.5833526683610326  0.3679687641687135   T   T   T
  0.9196031045901490  0.5833150784121766  0.3641623710297278   T   T   T
  0.6667155465009331  0.8361874050759056  0.3641832350899926   T   T   T
  0.9196116639505801  0.8362551315482062  0.3641575733334807   T   T   T
  0.6683105163621030  0.5834792191673011  0.4945429213975147   T   T   T
  0.6142272016770092  0.6305402733160554  0.5153370038010304   T   T   T
  0.6216142204985531  0.4819783159114392  0.5148053747362302   T   T   T
  0.7701269443902393  0.6378992598369410  0.5143812545054464   T   T   T
 
  0.00000000E+00  0.00000000E+00  0.00000000E+00
  0.00000000E+00  0.00000000E+00  0.00000000E+00
  0.00000000E+00  0.00000000E+00  0.00000000E+00
  0.00000000E+00  0.00000000E+00  0.00000000E+00
  0.00000000E+00  0.00000000E+00  0.00000000E+00
  0.00000000E+00  0.00000000E+00  0.00000000E+00
  0.00000000E+00  0.00000000E+00  0.00000000E+00
  0.00000000E+00  0.00000000E+00  0.00000000E+00
  0.00000000E+00  0.00000000E+00  0.00000000E+00
  0.00000000E+00  0.00000000E+00  0.00000000E+00
  0.00000000E+00  0.00000000E+00  0.00000000E+00
  0.00000000E+00  0.00000000E+00  0.00000000E+00
  0.00000000E+00  0.00000000E+00  0.00000000E+00
  0.00000000E+00  0.00000000E+00  0.00000000E+00
  0.00000000E+00  0.00000000E+00  0.00000000E+00
  0.00000000E+00  0.00000000E+00  0.00000000E+00
  0.00000000E+00  0.00000000E+00  0.00000000E+00
  0.00000000E+00  0.00000000E+00  0.00000000E+00
  0.00000000E+00  0.00000000E+00  0.00000000E+00
  0.00000000E+00  0.00000000E+00  0.00000000E+00
  0.00000000E+00  0.00000000E+00  0.00000000E+00
  0.00000000E+00  0.00000000E+00  0.00000000E+00
  0.00000000E+00  0.00000000E+00  0.00000000E+00
  0.00000000E+00  0.00000000E+00  0.00000000E+00
  0.00000000E+00  0.00000000E+00  0.00000000E+00
  0.00000000E+00  0.00000000E+00  0.00000000E+00
  0.00000000E+00  0.00000000E+00  0.00000000E+00
  0.00000000E+00  0.00000000E+00  0.00000000E+00
  0.00000000E+00  0.00000000E+00  0.00000000E+00
  0.00000000E+00  0.00000000E+00  0.00000000E+00
  0.00000000E+00  0.00000000E+00  0.00000000E+00
  0.00000000E+00  0.00000000E+00  0.00000000E+00
  0.00000000E+00  0.00000000E+00  0.00000000E+00
  0.00000000E+00  0.00000000E+00  0.00000000E+00
  0.00000000E+00  0.00000000E+00  0.00000000E+00
  0.00000000E+00  0.00000000E+00  0.00000000E+00
  0.00000000E+00  0.00000000E+00  0.00000000E+00
  0.00000000E+00  0.00000000E+00  0.00000000E+00
  0.00000000E+00  0.00000000E+00  0.00000000E+00
  0.00000000E+00  0.00000000E+00  0.00000000E+00
  0.00000000E+00  0.00000000E+00  0.00000000E+00
  0.00000000E+00  0.00000000E+00  0.00000000E+00
  0.00000000E+00  0.00000000E+00  0.00000000E+00
  0.00000000E+00  0.00000000E+00  0.00000000E+00
  0.00000000E+00  0.00000000E+00  0.00000000E+00
  0.00000000E+00  0.00000000E+00  0.00000000E+00
  0.00000000E+00  0.00000000E+00  0.00000000E+00
  0.00000000E+00  0.00000000E+00  0.00000000E+00
  0.00000000E+00  0.00000000E+00  0.00000000E+00
  0.00000000E+00  0.00000000E+00  0.00000000E+00
  0.00000000E+00  0.00000000E+00  0.00000000E+00
  0.00000000E+00  0.00000000E+00  0.00000000E+00
  0.00000000E+00  0.00000000E+00  0.00000000E+00
  0.00000000E+00  0.00000000E+00  0.00000000E+00
  0.00000000E+00  0.00000000E+00  0.00000000E+00
  0.00000000E+00  0.00000000E+00  0.00000000E+00
  0.00000000E+00  0.00000000E+00  0.00000000E+00
  0.00000000E+00  0.00000000E+00  0.00000000E+00
  0.00000000E+00  0.00000000E+00  0.00000000E+00
  0.00000000E+00  0.00000000E+00  0.00000000E+00
  0.00000000E+00  0.00000000E+00  0.00000000E+00
  0.00000000E+00  0.00000000E+00  0.00000000E+00
  0.00000000E+00  0.00000000E+00  0.00000000E+00
  0.00000000E+00  0.00000000E+00  0.00000000E+00
  0.00000000E+00  0.00000000E+00  0.00000000E+00
  0.00000000E+00  0.00000000E+00  0.00000000E+00
  0.00000000E+00  0.00000000E+00  0.00000000E+00
  0.00000000E+00  0.00000000E+00  0.00000000E+00
