Ru(001)                                 
   1.00000000000000     
    10.9034004211000006    0.0000000000000000    0.0000000000000000
    -5.4517002106000003    9.4426217522999991    0.0000000000000000
     0.0000000000000000    0.0000000000000000   17.4528999328999994
   Ru   N    H 
    64     1     3
Selective dynamics
Direct
  0.0833300030000004  0.1666699989999998  0.0000000000000000   F   F   F
  0.3333299920000030  0.1666699989999998  0.0000000000000000   F   F   F
  0.0833299980000035  0.4166700099999971  0.0000000000000000   F   F   F
  0.3333299980000035  0.4166700099999971  0.0000000000000000   F   F   F
  0.5833300139999977  0.1666699989999998  0.0000000000000000   F   F   F
  0.8333299259999976  0.1666699989999998  0.0000000000000000   F   F   F
  0.5833299760000017  0.4166700099999971  0.0000000000000000   F   F   F
  0.8333299760000017  0.4166700099999971  0.0000000000000000   F   F   F
  0.0833300159999979  0.6666700469999967  0.0000000000000000   F   F   F
  0.3333300159999979  0.6666700469999967  0.0000000000000000   F   F   F
  0.0833299869999991  0.9166700330000026  0.0000000000000000   F   F   F
  0.3333299869999991  0.9166700330000026  0.0000000000000000   F   F   F
  0.5833300159999979  0.6666700469999967  0.0000000000000000   F   F   F
  0.8333299499999995  0.6666700469999967  0.0000000000000000   F   F   F
  0.5833299869999991  0.9166700330000026  0.0000000000000000   F   F   F
  0.8333299439999990  0.9166700330000026  0.0000000000000000   F   F   F
  0.1666699969999996  0.0833299999999966  0.1232399980000025   F   F   F
  0.4166699860000023  0.0833299999999966  0.1232399980000025   F   F   F
  0.1666700090000006  0.3333300239999986  0.1232399980000025   F   F   F
  0.4166700190000014  0.3333300239999986  0.1232399980000025   F   F   F
  0.6666699860000023  0.0833299999999966  0.1232399980000025   F   F   F
  0.9166700290000023  0.0833299999999966  0.1232399980000025   F   F   F
  0.6666699980000033  0.3333300239999986  0.1232399980000025   F   F   F
  0.9166700849999998  0.3333300239999986  0.1232399980000025   F   F   F
  0.1666699889999990  0.5833299849999989  0.1232399980000025   F   F   F
  0.4166700000000034  0.5833299849999989  0.1232399980000025   F   F   F
  0.1666700399999996  0.8333300219999984  0.1232399980000025   F   F   F
  0.4166700399999996  0.8333300219999984  0.1232399980000025   F   F   F
  0.6666700219999981  0.5833299849999989  0.1232399980000025   F   F   F
  0.9166700219999981  0.5833299849999989  0.1232399980000025   F   F   F
  0.6666700399999996  0.8333300219999984  0.1232399980000025   F   F   F
  0.9166700840000033  0.8333300219999984  0.1232399980000025   F   F   F
  0.0834265413371511  0.1666013753470190  0.2451239601762105   T   T   T
  0.3332819811896036  0.1669023069805358  0.2452486469834484   T   T   T
  0.0834315485889558  0.4167933495103995  0.2451167846021081   T   T   T
  0.3337923638504696  0.4168481532292411  0.2448656020349195   T   T   T
  0.5836681748359063  0.1668624643248717  0.2452358694443753   T   T   T
  0.8332109015989672  0.1665800773273318  0.2451157379456275   T   T   T
  0.5832101502336706  0.4164093674471215  0.2453312689947596   T   T   T
  0.8331618951938159  0.4168676322272484  0.2448315121526128   T   T   T
  0.0831429133316120  0.6663411406003572  0.2452411248657652   T   T   T
  0.3332666543747174  0.6663156724724584  0.2452480222661564   T   T   T
  0.0831369422850378  0.9167604608948671  0.2452377983353202   T   T   T
  0.3333564008891318  0.9166481227253978  0.2449371801163428   T   T   T
  0.5832245001079014  0.6667816999249870  0.2453420083886029   T   T   T
  0.8336095073743069  0.6667958457664973  0.2453240420127821   T   T   T
  0.5836820050536143  0.9167386039141756  0.2452477763360804   T   T   T
  0.8331401888184753  0.9162248747347880  0.2448462557070030   T   T   T
  0.1665188450992154  0.0835383244823026  0.3634284712779250   T   T   T
  0.4178682580754793  0.0856258150259343  0.3632038385538107   T   T   T
  0.1691853983190024  0.3345687854098720  0.3634262309239064   T   T   T
  0.4133264279081436  0.3299554879172478  0.3632538518960712   T   T   T
  0.6670676934024751  0.0835170290168140  0.3634167591354108   T   T   T
  0.9154608522297439  0.0808255324966906  0.3634199557058026   T   T   T
  0.6667291418851143  0.3298865199260623  0.3631929366378293   T   T   T
  0.9154614714140573  0.3345467910859205  0.3634169049406332   T   T   T
  0.1665127985807020  0.5829470012852993  0.3634212198564949   T   T   T
  0.4133077045173083  0.5832590875562622  0.3632306718791923   T   T   T
  0.1643874044960971  0.8321767658789925  0.3631993406253679   T   T   T
  0.4178705086551924  0.8321527280062656  0.3632051367020342   T   T   T
  0.6668099407530871  0.5833564232500456  0.3672127391771378   T   T   T
  0.9201300055724612  0.5832827451660835  0.3632064518616709   T   T   T
  0.6667433957339931  0.8367112653285776  0.3632292704634628   T   T   T
  0.9201523902627243  0.8367910705071167  0.3632104004818375   T   T   T
  0.6683801901068219  0.5835345903097703  0.4943650867003662   T   T   T
  0.6143460914584977  0.6304856349016877  0.5154856703468343   T   T   T
  0.6217754613685034  0.4821385944818309  0.5148650407835956   T   T   T
  0.7700964537640953  0.6378368460029141  0.5144571906858819   T   T   T
 
  0.00000000E+00  0.00000000E+00  0.00000000E+00
  0.00000000E+00  0.00000000E+00  0.00000000E+00
  0.00000000E+00  0.00000000E+00  0.00000000E+00
  0.00000000E+00  0.00000000E+00  0.00000000E+00
  0.00000000E+00  0.00000000E+00  0.00000000E+00
  0.00000000E+00  0.00000000E+00  0.00000000E+00
  0.00000000E+00  0.00000000E+00  0.00000000E+00
  0.00000000E+00  0.00000000E+00  0.00000000E+00
  0.00000000E+00  0.00000000E+00  0.00000000E+00
  0.00000000E+00  0.00000000E+00  0.00000000E+00
  0.00000000E+00  0.00000000E+00  0.00000000E+00
  0.00000000E+00  0.00000000E+00  0.00000000E+00
  0.00000000E+00  0.00000000E+00  0.00000000E+00
  0.00000000E+00  0.00000000E+00  0.00000000E+00
  0.00000000E+00  0.00000000E+00  0.00000000E+00
  0.00000000E+00  0.00000000E+00  0.00000000E+00
  0.00000000E+00  0.00000000E+00  0.00000000E+00
  0.00000000E+00  0.00000000E+00  0.00000000E+00
  0.00000000E+00  0.00000000E+00  0.00000000E+00
  0.00000000E+00  0.00000000E+00  0.00000000E+00
  0.00000000E+00  0.00000000E+00  0.00000000E+00
  0.00000000E+00  0.00000000E+00  0.00000000E+00
  0.00000000E+00  0.00000000E+00  0.00000000E+00
  0.00000000E+00  0.00000000E+00  0.00000000E+00
  0.00000000E+00  0.00000000E+00  0.00000000E+00
  0.00000000E+00  0.00000000E+00  0.00000000E+00
  0.00000000E+00  0.00000000E+00  0.00000000E+00
  0.00000000E+00  0.00000000E+00  0.00000000E+00
  0.00000000E+00  0.00000000E+00  0.00000000E+00
  0.00000000E+00  0.00000000E+00  0.00000000E+00
  0.00000000E+00  0.00000000E+00  0.00000000E+00
  0.00000000E+00  0.00000000E+00  0.00000000E+00
  0.00000000E+00  0.00000000E+00  0.00000000E+00
  0.00000000E+00  0.00000000E+00  0.00000000E+00
  0.00000000E+00  0.00000000E+00  0.00000000E+00
  0.00000000E+00  0.00000000E+00  0.00000000E+00
  0.00000000E+00  0.00000000E+00  0.00000000E+00
  0.00000000E+00  0.00000000E+00  0.00000000E+00
  0.00000000E+00  0.00000000E+00  0.00000000E+00
  0.00000000E+00  0.00000000E+00  0.00000000E+00
  0.00000000E+00  0.00000000E+00  0.00000000E+00
  0.00000000E+00  0.00000000E+00  0.00000000E+00
  0.00000000E+00  0.00000000E+00  0.00000000E+00
  0.00000000E+00  0.00000000E+00  0.00000000E+00
  0.00000000E+00  0.00000000E+00  0.00000000E+00
  0.00000000E+00  0.00000000E+00  0.00000000E+00
  0.00000000E+00  0.00000000E+00  0.00000000E+00
  0.00000000E+00  0.00000000E+00  0.00000000E+00
  0.00000000E+00  0.00000000E+00  0.00000000E+00
  0.00000000E+00  0.00000000E+00  0.00000000E+00
  0.00000000E+00  0.00000000E+00  0.00000000E+00
  0.00000000E+00  0.00000000E+00  0.00000000E+00
  0.00000000E+00  0.00000000E+00  0.00000000E+00
  0.00000000E+00  0.00000000E+00  0.00000000E+00
  0.00000000E+00  0.00000000E+00  0.00000000E+00
  0.00000000E+00  0.00000000E+00  0.00000000E+00
  0.00000000E+00  0.00000000E+00  0.00000000E+00
  0.00000000E+00  0.00000000E+00  0.00000000E+00
  0.00000000E+00  0.00000000E+00  0.00000000E+00
  0.00000000E+00  0.00000000E+00  0.00000000E+00
  0.00000000E+00  0.00000000E+00  0.00000000E+00
  0.00000000E+00  0.00000000E+00  0.00000000E+00
  0.00000000E+00  0.00000000E+00  0.00000000E+00
  0.00000000E+00  0.00000000E+00  0.00000000E+00
  0.00000000E+00  0.00000000E+00  0.00000000E+00
  0.00000000E+00  0.00000000E+00  0.00000000E+00
  0.00000000E+00  0.00000000E+00  0.00000000E+00
  0.00000000E+00  0.00000000E+00  0.00000000E+00
