Ru  N  H                                
   1.00000000000000     
    10.9034004211000006    0.0000000000000000    0.0000000000000000
    -5.4517002106000003    9.4426217522999991    0.0000000000000000
     0.0000000000000000    0.0000000000000000   17.4528999328999994
   Ru   N    H 
    64     1     3
Selective dynamics
Direct
  0.0833300030037521  0.1666699989986000  0.0000000000000000   F   F   F
  0.3333299920003014  0.1666699989986000  0.0000000000000000   F   F   F
  0.0833299980008277  0.4166700100045446  0.0000000000000000   F   F   F
  0.3333299980031228  0.4166700100045446  0.0000000000000000   F   F   F
  0.5833300139957345  0.1666699989986000  0.0000000000000000   F   F   F
  0.8333299259979583  0.1666699989986000  0.0000000000000000   F   F   F
  0.5833299760031068  0.4166700100045446  0.0000000000000000   F   F   F
  0.8333299760053947  0.4166700100045446  0.0000000000000000   F   F   F
  0.0833300159982286  0.6666700469990373  0.0000000000000000   F   F   F
  0.3333300160005237  0.6666700469990373  0.0000000000000000   F   F   F
  0.0833299870016546  0.9166700330013382  0.0000000000000000   F   F   F
  0.3333299870039496  0.9166700330013382  0.0000000000000000   F   F   F
  0.5833300160028188  0.6666700469990373  0.0000000000000000   F   F   F
  0.8333299499981806  0.6666700469990373  0.0000000000000000   F   F   F
  0.5833299869970715  0.9166700330013382  0.0000000000000000   F   F   F
  0.8333299440036015  0.9166700330013382  0.0000000000000000   F   F   F
  0.1666699969966743  0.0833299999979715  0.1232399979985814   F   F   F
  0.4166699860023968  0.0833299999979715  0.1232399979985814   F   F   F
  0.1666700090013649  0.3333300239981938  0.1232399979985814   F   F   F
  0.4166700190005415  0.3333300239981938  0.1232399979985814   F   F   F
  0.6666699859955187  0.0833299999979715  0.1232399979985814   F   F   F
  0.9166700290027380  0.0833299999979715  0.1232399979985814   F   F   F
  0.6666699980002093  0.3333300239981938  0.1232399979985814   F   F   F
  0.9166700850028846  0.3333300239981938  0.1232399979985814   F   F   F
  0.1666699890008445  0.5833299849968440  0.1232399979985814   F   F   F
  0.4166699999997121  0.5833299849968440  0.1232399979985814   F   F   F
  0.1666700400024226  0.8333300220019239  0.1232399979985814   F   F   F
  0.4166700400047176  0.8333300220019239  0.1232399979985814   F   F   F
  0.6666700219951380  0.5833299849968440  0.1232399979985814   F   F   F
  0.9166700219974330  0.5833299849968440  0.1232399979985814   F   F   F
  0.6666700399978396  0.8333300220019239  0.1232399979985814   F   F   F
  0.9166700840047497  0.8333300220019239  0.1232399979985814   F   F   F
  0.0834666841587506  0.1667416303333837  0.2454045908454532   F   F   F
  0.3329391262075134  0.1659467869734712  0.2455605938885270   F   F   F
  0.0834586449870756  0.4166920220373739  0.2453905279446786   F   F   F
  0.3332356641220784  0.4170650775501769  0.2453496079999837   F   F   F
  0.5834176315475332  0.1668760163157188  0.2455096612353103   F   F   F
  0.8334361135351288  0.1668501136049656  0.2453775184447764   F   F   F
  0.5838499285760507  0.4168746614086487  0.2455994301565738   F   F   F
  0.8332025400763854  0.4167579310419214  0.2452114957659575   F   F   F
  0.0830524327360607  0.6662446337393176  0.2457174729579421   F   F   F
  0.3329060285452599  0.6662711923272369  0.2454105389114147   F   F   F
  0.0831421492416666  0.9168003248664859  0.2455306387462883   F   F   F
  0.3335615700794961  0.9168217121787520  0.2452572368693353   F   F   F
  0.5830622893482271  0.6662995228065256  0.2454462499567071   F   F   F
  0.8336622009906733  0.6664504676857561  0.2453767828993917   F   F   F
  0.5832822652416283  0.9163579442322102  0.2455852038445627   F   F   F
  0.8331760314198462  0.9162511825799483  0.2453010808094759   F   F   F
  0.1650400365497146  0.0824402530370185  0.3632528923035969   T   T   T
  0.4169872255325806  0.0839905348595225  0.3634327779120620   T   T   T
  0.1668257872805021  0.3332269511484274  0.3633991082057085   T   T   T
  0.4142393971400582  0.3288894926231878  0.3629283687852667   T   T   T
  0.6677744138755730  0.0840449786817066  0.3633853186515549   T   T   T
  0.9159485834616918  0.0823285900071981  0.3635756129933740   T   T   T
  0.6663670608854106  0.3292008208722475  0.3633980749695483   T   T   T
  0.9159702261012665  0.3338707034608712  0.3637368113314614   T   T   T
  0.1645226602596051  0.5825061508316266  0.3632362284811231   T   T   T
  0.4173605894722734  0.5850470322561937  0.3647690969615530   T   T   T
  0.1654345283751500  0.8326313639838910  0.3635087476634576   T   T   T
  0.4169450314649676  0.8332408812857038  0.3632404600083130   T   T   T
  0.6635044211449979  0.5825396246926605  0.3666225796790648   T   T   T
  0.9190646268341236  0.5844813709215120  0.3643059729006295   T   T   T
  0.6667328995385744  0.8385928265363866  0.3629404596339560   T   T   T
  0.9198604503494412  0.8351049677578787  0.3641364018408806   T   T   T
  0.6083151964721651  0.5746955895788574  0.4807410480019396   T   T   T
  0.6223922792453629  0.6594911519459625  0.5123497190755676   T   T   T
  0.5885136772942500  0.4907353001885566  0.5149139827470942   T   T   T
  0.7600103017913611  0.6341907201764576  0.4513335324437294   T   T   T
 
  0.00000000E+00  0.00000000E+00  0.00000000E+00
  0.00000000E+00  0.00000000E+00  0.00000000E+00
  0.00000000E+00  0.00000000E+00  0.00000000E+00
  0.00000000E+00  0.00000000E+00  0.00000000E+00
  0.00000000E+00  0.00000000E+00  0.00000000E+00
  0.00000000E+00  0.00000000E+00  0.00000000E+00
  0.00000000E+00  0.00000000E+00  0.00000000E+00
  0.00000000E+00  0.00000000E+00  0.00000000E+00
  0.00000000E+00  0.00000000E+00  0.00000000E+00
  0.00000000E+00  0.00000000E+00  0.00000000E+00
  0.00000000E+00  0.00000000E+00  0.00000000E+00
  0.00000000E+00  0.00000000E+00  0.00000000E+00
  0.00000000E+00  0.00000000E+00  0.00000000E+00
  0.00000000E+00  0.00000000E+00  0.00000000E+00
  0.00000000E+00  0.00000000E+00  0.00000000E+00
  0.00000000E+00  0.00000000E+00  0.00000000E+00
  0.00000000E+00  0.00000000E+00  0.00000000E+00
  0.00000000E+00  0.00000000E+00  0.00000000E+00
  0.00000000E+00  0.00000000E+00  0.00000000E+00
  0.00000000E+00  0.00000000E+00  0.00000000E+00
  0.00000000E+00  0.00000000E+00  0.00000000E+00
  0.00000000E+00  0.00000000E+00  0.00000000E+00
  0.00000000E+00  0.00000000E+00  0.00000000E+00
  0.00000000E+00  0.00000000E+00  0.00000000E+00
  0.00000000E+00  0.00000000E+00  0.00000000E+00
  0.00000000E+00  0.00000000E+00  0.00000000E+00
  0.00000000E+00  0.00000000E+00  0.00000000E+00
  0.00000000E+00  0.00000000E+00  0.00000000E+00
  0.00000000E+00  0.00000000E+00  0.00000000E+00
  0.00000000E+00  0.00000000E+00  0.00000000E+00
  0.00000000E+00  0.00000000E+00  0.00000000E+00
  0.00000000E+00  0.00000000E+00  0.00000000E+00
  0.00000000E+00  0.00000000E+00  0.00000000E+00
  0.00000000E+00  0.00000000E+00  0.00000000E+00
  0.00000000E+00  0.00000000E+00  0.00000000E+00
  0.00000000E+00  0.00000000E+00  0.00000000E+00
  0.00000000E+00  0.00000000E+00  0.00000000E+00
  0.00000000E+00  0.00000000E+00  0.00000000E+00
  0.00000000E+00  0.00000000E+00  0.00000000E+00
  0.00000000E+00  0.00000000E+00  0.00000000E+00
  0.00000000E+00  0.00000000E+00  0.00000000E+00
  0.00000000E+00  0.00000000E+00  0.00000000E+00
  0.00000000E+00  0.00000000E+00  0.00000000E+00
  0.00000000E+00  0.00000000E+00  0.00000000E+00
  0.00000000E+00  0.00000000E+00  0.00000000E+00
  0.00000000E+00  0.00000000E+00  0.00000000E+00
  0.00000000E+00  0.00000000E+00  0.00000000E+00
  0.00000000E+00  0.00000000E+00  0.00000000E+00
  0.22302127E-02 -0.49218841E-02 -0.74724790E-02
  0.10859869E-02 -0.65764777E-02 -0.10073295E-02
 -0.62520561E-02 -0.22537164E-02 -0.49821718E-03
  0.90178652E-02  0.97491670E-02  0.46515287E-02
  0.72880693E-02  0.20732092E-02 -0.55147180E-02
  0.16101720E-02  0.24959354E-02 -0.53446275E-02
  0.80307010E-02 -0.33017319E-02  0.40341550E-02
  0.44798928E-02 -0.35108970E-02 -0.29622217E-02
  0.12409306E-02  0.56117501E-02 -0.50577454E-02
  0.56673982E-01 -0.95429272E-02  0.63230031E-01
  0.65755779E-02  0.28709997E-02  0.10884270E-02
 -0.31311838E-02  0.22970349E-02 -0.27835229E-02
  0.43004704E-01  0.15517931E-01  0.23750930E+00
 -0.88947913E-02  0.32237200E-02  0.15262513E-01
  0.53357615E-02  0.13468952E-01  0.68690957E-02
 -0.18713714E-02 -0.11784463E-01  0.19608581E-01
 -0.62472257E+00 -0.23272206E+00 -0.58168664E-01
  0.28269946E-01 -0.19208336E-01  0.47022645E-02
 -0.49287438E-01 -0.10450377E-01  0.97806371E-02
  0.47739375E+00  0.22005885E+00 -0.45205101E+00
