Ru  N  H                                
   1.00000000000000     
    10.9034004211000006    0.0000000000000000    0.0000000000000000
    -5.4517002106000003    9.4426217522999991    0.0000000000000000
     0.0000000000000000    0.0000000000000000   17.4528999328999994
   Ru   N    H 
    64     1     3
Selective dynamics
Direct
  0.0833300030000004  0.1666699989999998  0.0000000000000000   F   F   F
  0.3333299920000030  0.1666699989999998  0.0000000000000000   F   F   F
  0.0833299980000035  0.4166700099999971  0.0000000000000000   F   F   F
  0.3333299980000035  0.4166700099999971  0.0000000000000000   F   F   F
  0.5833300139999977  0.1666699989999998  0.0000000000000000   F   F   F
  0.8333299259999976  0.1666699989999998  0.0000000000000000   F   F   F
  0.5833299760000017  0.4166700099999971  0.0000000000000000   F   F   F
  0.8333299760000017  0.4166700099999971  0.0000000000000000   F   F   F
  0.0833300159999979  0.6666700469999967  0.0000000000000000   F   F   F
  0.3333300159999979  0.6666700469999967  0.0000000000000000   F   F   F
  0.0833299869999991  0.9166700330000026  0.0000000000000000   F   F   F
  0.3333299869999991  0.9166700330000026  0.0000000000000000   F   F   F
  0.5833300159999979  0.6666700469999967  0.0000000000000000   F   F   F
  0.8333299499999995  0.6666700469999967  0.0000000000000000   F   F   F
  0.5833299869999991  0.9166700330000026  0.0000000000000000   F   F   F
  0.8333299439999990  0.9166700330000026  0.0000000000000000   F   F   F
  0.1666699969999996  0.0833299999999966  0.1232399980000025   F   F   F
  0.4166699860000023  0.0833299999999966  0.1232399980000025   F   F   F
  0.1666700090000006  0.3333300239999986  0.1232399980000025   F   F   F
  0.4166700190000014  0.3333300239999986  0.1232399980000025   F   F   F
  0.6666699860000023  0.0833299999999966  0.1232399980000025   F   F   F
  0.9166700290000023  0.0833299999999966  0.1232399980000025   F   F   F
  0.6666699980000033  0.3333300239999986  0.1232399980000025   F   F   F
  0.9166700849999998  0.3333300239999986  0.1232399980000025   F   F   F
  0.1666699889999990  0.5833299849999989  0.1232399980000025   F   F   F
  0.4166700000000034  0.5833299849999989  0.1232399980000025   F   F   F
  0.1666700399999996  0.8333300219999984  0.1232399980000025   F   F   F
  0.4166700399999996  0.8333300219999984  0.1232399980000025   F   F   F
  0.6666700219999981  0.5833299849999989  0.1232399980000025   F   F   F
  0.9166700219999981  0.5833299849999989  0.1232399980000025   F   F   F
  0.6666700399999996  0.8333300219999984  0.1232399980000025   F   F   F
  0.9166700840000033  0.8333300219999984  0.1232399980000025   F   F   F
  0.0833576802038252  0.1666690890432250  0.2454868519812337   F   F   F
  0.3334036874640418  0.1669306544322282  0.2456832357740169   F   F   F
  0.0833666113010096  0.4166644019120582  0.2454864918809889   F   F   F
  0.3335913107192141  0.4167765747675745  0.2451786931597439   F   F   F
  0.5835674054601796  0.1669105924116394  0.2456765010633575   F   F   F
  0.8333453549510779  0.1666517560251890  0.2454830819838349   F   F   F
  0.5832229044015023  0.4164325907102864  0.2456275725578507   F   F   F
  0.8332379859465533  0.4167821250411805  0.2451634110899263   F   F   F
  0.0830978105735340  0.6664452913176362  0.2456788037727549   F   F   F
  0.3334031725251734  0.6664471337239561  0.2456783185829252   F   F   F
  0.0830989720385347  0.9166252154416910  0.2456767062522118   F   F   F
  0.3333564323370624  0.9166582868253457  0.2451860350148181   F   F   F
  0.5832311045541019  0.6667756216804577  0.2456312676185632   F   F   F
  0.8335908677133901  0.6667792027959365  0.2456142076912329   F   F   F
  0.5835687540324557  0.9166205364832365  0.2456801934328183   F   F   F
  0.8332225404127911  0.9164239880064784  0.2451693281327607   F   F   F
  0.1664881247763148  0.0835916894018709  0.3643244067637355   F   F   F
  0.4175574714393377  0.0850206113552971  0.3642120550510555   F   F   F
  0.1687069903084293  0.3343341710935732  0.3644387585098983   F   F   F
  0.4138421988446410  0.3304917227045010  0.3641955522691518   F   F   F
  0.6672037415147116  0.0835551025348522  0.3643222531835164   F   F   F
  0.9156893042761993  0.0813080599363118  0.3644316923961881   F   F   F
  0.6667038314906861  0.3304237801544048  0.3641523918109186   F   F   F
  0.9156869791694646  0.3343363045652765  0.3644296290215649   F   F   F
  0.1664802344335854  0.5828320793329382  0.3643222299691473   F   F   F
  0.4138292280384519  0.5832879731539578  0.3641821128880167   F   F   F
  0.1650077029253083  0.8324857532377550  0.3642061853794587   F   F   F
  0.4175621799158407  0.8324648272038573  0.3642125786512054   F   F   F
  0.6668249050728647  0.5833526683610302  0.3679687641687153   F   F   F
  0.9196031045901520  0.5833150784121770  0.3641623710297281   F   F   F
  0.6667155465009316  0.8361874050759042  0.3641832350899961   F   F   F
  0.9196116639505831  0.8362551315482065  0.3641575733334790   F   F   F
  0.6683105163621050  0.5834792191673017  0.4945429213975174   T   T   T
  0.6142272016770107  0.6305402733160577  0.5153370038010294   T   T   T
  0.6216142204985502  0.4819783159114408  0.5148053747362269   T   T   T
  0.7701269443902419  0.6378992598369421  0.5135217984805047   T   T   T
 
  0.00000000E+00  0.00000000E+00  0.00000000E+00
  0.00000000E+00  0.00000000E+00  0.00000000E+00
  0.00000000E+00  0.00000000E+00  0.00000000E+00
  0.00000000E+00  0.00000000E+00  0.00000000E+00
  0.00000000E+00  0.00000000E+00  0.00000000E+00
  0.00000000E+00  0.00000000E+00  0.00000000E+00
  0.00000000E+00  0.00000000E+00  0.00000000E+00
  0.00000000E+00  0.00000000E+00  0.00000000E+00
  0.00000000E+00  0.00000000E+00  0.00000000E+00
  0.00000000E+00  0.00000000E+00  0.00000000E+00
  0.00000000E+00  0.00000000E+00  0.00000000E+00
  0.00000000E+00  0.00000000E+00  0.00000000E+00
  0.00000000E+00  0.00000000E+00  0.00000000E+00
  0.00000000E+00  0.00000000E+00  0.00000000E+00
  0.00000000E+00  0.00000000E+00  0.00000000E+00
  0.00000000E+00  0.00000000E+00  0.00000000E+00
  0.00000000E+00  0.00000000E+00  0.00000000E+00
  0.00000000E+00  0.00000000E+00  0.00000000E+00
  0.00000000E+00  0.00000000E+00  0.00000000E+00
  0.00000000E+00  0.00000000E+00  0.00000000E+00
  0.00000000E+00  0.00000000E+00  0.00000000E+00
  0.00000000E+00  0.00000000E+00  0.00000000E+00
  0.00000000E+00  0.00000000E+00  0.00000000E+00
  0.00000000E+00  0.00000000E+00  0.00000000E+00
  0.00000000E+00  0.00000000E+00  0.00000000E+00
  0.00000000E+00  0.00000000E+00  0.00000000E+00
  0.00000000E+00  0.00000000E+00  0.00000000E+00
  0.00000000E+00  0.00000000E+00  0.00000000E+00
  0.00000000E+00  0.00000000E+00  0.00000000E+00
  0.00000000E+00  0.00000000E+00  0.00000000E+00
  0.00000000E+00  0.00000000E+00  0.00000000E+00
  0.00000000E+00  0.00000000E+00  0.00000000E+00
  0.00000000E+00  0.00000000E+00  0.00000000E+00
  0.00000000E+00  0.00000000E+00  0.00000000E+00
  0.00000000E+00  0.00000000E+00  0.00000000E+00
  0.00000000E+00  0.00000000E+00  0.00000000E+00
  0.00000000E+00  0.00000000E+00  0.00000000E+00
  0.00000000E+00  0.00000000E+00  0.00000000E+00
  0.00000000E+00  0.00000000E+00  0.00000000E+00
  0.00000000E+00  0.00000000E+00  0.00000000E+00
  0.00000000E+00  0.00000000E+00  0.00000000E+00
  0.00000000E+00  0.00000000E+00  0.00000000E+00
  0.00000000E+00  0.00000000E+00  0.00000000E+00
  0.00000000E+00  0.00000000E+00  0.00000000E+00
  0.00000000E+00  0.00000000E+00  0.00000000E+00
  0.00000000E+00  0.00000000E+00  0.00000000E+00
  0.00000000E+00  0.00000000E+00  0.00000000E+00
  0.00000000E+00  0.00000000E+00  0.00000000E+00
  0.00000000E+00  0.00000000E+00  0.00000000E+00
  0.00000000E+00  0.00000000E+00  0.00000000E+00
  0.00000000E+00  0.00000000E+00  0.00000000E+00
  0.00000000E+00  0.00000000E+00  0.00000000E+00
  0.00000000E+00  0.00000000E+00  0.00000000E+00
  0.00000000E+00  0.00000000E+00  0.00000000E+00
  0.00000000E+00  0.00000000E+00  0.00000000E+00
  0.00000000E+00  0.00000000E+00  0.00000000E+00
  0.00000000E+00  0.00000000E+00  0.00000000E+00
  0.00000000E+00  0.00000000E+00  0.00000000E+00
  0.00000000E+00  0.00000000E+00  0.00000000E+00
  0.00000000E+00  0.00000000E+00  0.00000000E+00
  0.00000000E+00  0.00000000E+00  0.00000000E+00
  0.00000000E+00  0.00000000E+00  0.00000000E+00
  0.00000000E+00  0.00000000E+00  0.00000000E+00
  0.00000000E+00  0.00000000E+00  0.00000000E+00
  0.00000000E+00  0.00000000E+00  0.00000000E+00
  0.00000000E+00  0.00000000E+00  0.00000000E+00
  0.00000000E+00  0.00000000E+00  0.00000000E+00
  0.00000000E+00  0.00000000E+00  0.00000000E+00
