Ru(001)                                 
   1.00000000000000     
    10.9034004211000006    0.0000000000000000    0.0000000000000000
    -5.4517002106000003    9.4426217522999991    0.0000000000000000
     0.0000000000000000    0.0000000000000000   17.4528999328999994
   Ru   N    H 
    64     1     2
Selective dynamics
Direct
  0.0833300030000004  0.1666699989999998  0.0000000000000000   F   F   F
  0.3333299920000030  0.1666699989999998  0.0000000000000000   F   F   F
  0.0833299980000035  0.4166700099999971  0.0000000000000000   F   F   F
  0.3333299980000035  0.4166700099999971  0.0000000000000000   F   F   F
  0.5833300139999977  0.1666699989999998  0.0000000000000000   F   F   F
  0.8333299259999976  0.1666699989999998  0.0000000000000000   F   F   F
  0.5833299760000017  0.4166700099999971  0.0000000000000000   F   F   F
  0.8333299760000017  0.4166700099999971  0.0000000000000000   F   F   F
  0.0833300159999979  0.6666700469999967  0.0000000000000000   F   F   F
  0.3333300159999979  0.6666700469999967  0.0000000000000000   F   F   F
  0.0833299869999991  0.9166700330000026  0.0000000000000000   F   F   F
  0.3333299869999991  0.9166700330000026  0.0000000000000000   F   F   F
  0.5833300159999979  0.6666700469999967  0.0000000000000000   F   F   F
  0.8333299499999995  0.6666700469999967  0.0000000000000000   F   F   F
  0.5833299869999991  0.9166700330000026  0.0000000000000000   F   F   F
  0.8333299439999990  0.9166700330000026  0.0000000000000000   F   F   F
  0.1666699969999996  0.0833299999999966  0.1232399980000025   F   F   F
  0.4166699860000023  0.0833299999999966  0.1232399980000025   F   F   F
  0.1666700090000006  0.3333300239999986  0.1232399980000025   F   F   F
  0.4166700190000014  0.3333300239999986  0.1232399980000025   F   F   F
  0.6666699860000023  0.0833299999999966  0.1232399980000025   F   F   F
  0.9166700290000023  0.0833299999999966  0.1232399980000025   F   F   F
  0.6666699980000033  0.3333300239999986  0.1232399980000025   F   F   F
  0.9166700849999998  0.3333300239999986  0.1232399980000025   F   F   F
  0.1666699889999990  0.5833299849999989  0.1232399980000025   F   F   F
  0.4166700000000034  0.5833299849999989  0.1232399980000025   F   F   F
  0.1666700399999996  0.8333300219999984  0.1232399980000025   F   F   F
  0.4166700399999996  0.8333300219999984  0.1232399980000025   F   F   F
  0.6666700219999981  0.5833299849999989  0.1232399980000025   F   F   F
  0.9166700219999981  0.5833299849999989  0.1232399980000025   F   F   F
  0.6666700399999996  0.8333300219999984  0.1232399980000025   F   F   F
  0.9166700840000033  0.8333300219999984  0.1232399980000025   F   F   F
  0.0836029391465191  0.1668323069893894  0.2453017643827787   T   T   T
  0.3323584246286040  0.1647169526742745  0.2454072914902433   T   T   T
  0.0835736871332511  0.4167265471572159  0.2452705729734445   T   T   T
  0.3327911059462784  0.4174257060138259  0.2455632515298505   T   T   T
  0.5832304141008029  0.1668327961780228  0.2453011114064412   T   T   T
  0.8335495617367533  0.1670980606184662  0.2452455639923729   T   T   T
  0.5846337088378656  0.4174272497772245  0.2455642520676320   T   T   T
  0.8331582327582466  0.4167276885837852  0.2452716016208408   T   T   T
  0.0829957104447061  0.6659938117726593  0.2457658094319330   T   T   T
  0.3322845986341491  0.6660512656422449  0.2450758142572030   T   T   T
  0.0831961208309598  0.9170192116804633  0.2453480543044643   T   T   T
  0.3338179922808641  0.9170259939152472  0.2453462392420310   T   T   T
  0.5828512703338445  0.6657043992423538  0.2452149778545488   T   T   T
  0.8337513676278904  0.6660395487761566  0.2450800018810249   T   T   T
  0.5829241543197582  0.9160297039457709  0.2454664668859207   T   T   T
  0.8331178952139111  0.9160351757591538  0.2454657716847124   T   T   T
  0.1655028651519753  0.0825109575862969  0.3640972577344431   T   T   T
  0.4170040270843589  0.0825156642952632  0.3640990558950156   T   T   T
  0.1652862652821495  0.3319990893315260  0.3645228887417860   T   T   T
  0.4132980605641985  0.3266028948948821  0.3624097105442289   T   T   T
  0.6669524829331767  0.0838765747462708  0.3639553122900926   T   T   T
  0.9169227560944019  0.0838801660210288  0.3639552739940890   T   T   T
  0.6667061338323643  0.3320026294892274  0.3645254070416067   T   T   T
  0.9169161975203733  0.3338330577985539  0.3643973128754198   T   T   T
  0.1678560353062898  0.5834841957410134  0.3641036956209391   T   T   T
  0.4189412821205200  0.5823263804112535  0.3684288999290979   T   T   T
  0.1659022983000674  0.8318033186699680  0.3642032089172554   T   T   T
  0.4166424034289541  0.8340682521577770  0.3639312297902316   T   T   T
  0.6633408522648816  0.5823243671981682  0.3684536401756669   T   T   T
  0.9156165471462586  0.5834849513115704  0.3641066434348345   T   T   T
  0.6701041495786929  0.8402060844046714  0.3634279988106127   T   T   T
  0.9174165724290437  0.8340603651381874  0.3639340143566069   T   T   T
  0.5399510958209943  0.5800377909137391  0.4621806706364026   T   T   T
  0.5838703494054475  0.6679418689244698  0.4964222136984612   T   T   T
  0.4962985180385359  0.4928990787558760  0.4969268805816555   T   T   T
 
  0.00000000E+00  0.00000000E+00  0.00000000E+00
  0.00000000E+00  0.00000000E+00  0.00000000E+00
  0.00000000E+00  0.00000000E+00  0.00000000E+00
  0.00000000E+00  0.00000000E+00  0.00000000E+00
  0.00000000E+00  0.00000000E+00  0.00000000E+00
  0.00000000E+00  0.00000000E+00  0.00000000E+00
  0.00000000E+00  0.00000000E+00  0.00000000E+00
  0.00000000E+00  0.00000000E+00  0.00000000E+00
  0.00000000E+00  0.00000000E+00  0.00000000E+00
  0.00000000E+00  0.00000000E+00  0.00000000E+00
  0.00000000E+00  0.00000000E+00  0.00000000E+00
  0.00000000E+00  0.00000000E+00  0.00000000E+00
  0.00000000E+00  0.00000000E+00  0.00000000E+00
  0.00000000E+00  0.00000000E+00  0.00000000E+00
  0.00000000E+00  0.00000000E+00  0.00000000E+00
  0.00000000E+00  0.00000000E+00  0.00000000E+00
  0.00000000E+00  0.00000000E+00  0.00000000E+00
  0.00000000E+00  0.00000000E+00  0.00000000E+00
  0.00000000E+00  0.00000000E+00  0.00000000E+00
  0.00000000E+00  0.00000000E+00  0.00000000E+00
  0.00000000E+00  0.00000000E+00  0.00000000E+00
  0.00000000E+00  0.00000000E+00  0.00000000E+00
  0.00000000E+00  0.00000000E+00  0.00000000E+00
  0.00000000E+00  0.00000000E+00  0.00000000E+00
  0.00000000E+00  0.00000000E+00  0.00000000E+00
  0.00000000E+00  0.00000000E+00  0.00000000E+00
  0.00000000E+00  0.00000000E+00  0.00000000E+00
  0.00000000E+00  0.00000000E+00  0.00000000E+00
  0.00000000E+00  0.00000000E+00  0.00000000E+00
  0.00000000E+00  0.00000000E+00  0.00000000E+00
  0.00000000E+00  0.00000000E+00  0.00000000E+00
  0.00000000E+00  0.00000000E+00  0.00000000E+00
  0.00000000E+00  0.00000000E+00  0.00000000E+00
  0.00000000E+00  0.00000000E+00  0.00000000E+00
  0.00000000E+00  0.00000000E+00  0.00000000E+00
  0.00000000E+00  0.00000000E+00  0.00000000E+00
  0.00000000E+00  0.00000000E+00  0.00000000E+00
  0.00000000E+00  0.00000000E+00  0.00000000E+00
  0.00000000E+00  0.00000000E+00  0.00000000E+00
  0.00000000E+00  0.00000000E+00  0.00000000E+00
  0.00000000E+00  0.00000000E+00  0.00000000E+00
  0.00000000E+00  0.00000000E+00  0.00000000E+00
  0.00000000E+00  0.00000000E+00  0.00000000E+00
  0.00000000E+00  0.00000000E+00  0.00000000E+00
  0.00000000E+00  0.00000000E+00  0.00000000E+00
  0.00000000E+00  0.00000000E+00  0.00000000E+00
  0.00000000E+00  0.00000000E+00  0.00000000E+00
  0.00000000E+00  0.00000000E+00  0.00000000E+00
  0.00000000E+00  0.00000000E+00  0.00000000E+00
  0.00000000E+00  0.00000000E+00  0.00000000E+00
  0.00000000E+00  0.00000000E+00  0.00000000E+00
  0.00000000E+00  0.00000000E+00  0.00000000E+00
  0.00000000E+00  0.00000000E+00  0.00000000E+00
  0.00000000E+00  0.00000000E+00  0.00000000E+00
  0.00000000E+00  0.00000000E+00  0.00000000E+00
  0.00000000E+00  0.00000000E+00  0.00000000E+00
  0.00000000E+00  0.00000000E+00  0.00000000E+00
  0.00000000E+00  0.00000000E+00  0.00000000E+00
  0.00000000E+00  0.00000000E+00  0.00000000E+00
  0.00000000E+00  0.00000000E+00  0.00000000E+00
  0.00000000E+00  0.00000000E+00  0.00000000E+00
  0.00000000E+00  0.00000000E+00  0.00000000E+00
  0.00000000E+00  0.00000000E+00  0.00000000E+00
  0.00000000E+00  0.00000000E+00  0.00000000E+00
  0.00000000E+00  0.00000000E+00  0.00000000E+00
  0.00000000E+00  0.00000000E+00  0.00000000E+00
  0.00000000E+00  0.00000000E+00  0.00000000E+00
