 vasp.6.4.2 20Jul23 (build Jun 09 2024 21:22:44) complex                        
  
 executed on             LinuxIFC date 2024.08.18  15:13:18
 running   32 mpi-ranks, with    1 threads/rank, on    1 nodes
 distrk:  each k-point on   32 cores,    1 groups
 distr:  one band on NCORE=  16 cores,    2 groups


--------------------------------------------------------------------------------------------------------


 INCAR:
   SYSTEM = Generated By Q_robot
   PREC = N
   ISTART = 1
   GGA = PE
   ISPIN = 1
   ENCUT = 500
   NELM = 400
   EDIFF = 1E-05
   LREAL = AUTO
   ALGO = F
   EDIFFG = -0.03
   NSW = 100
   IBRION = 2
   POTIM = 0.10
   ISIF = 2
   ISYM = 2
   LVHAR = F
   LWAVE = F
   LCHARG = F
   LAECHG = F
   LORBIT = 11
   NWRITE = 0
   LSCALAPACK = F
   NCORE = 16
   ISMEAR = 0
   SIGMA = 0.01

 POTCAR:    PAW_PBE Ru_sv 28Jan2005               
 POTCAR:    PAW_PBE N 08Apr2002                   
 POTCAR:    PAW_PBE H 15Jun2001                   
 POTCAR:    PAW_PBE Ru_sv 28Jan2005               
  local pseudopotential read in
  partial core-charges read in
  partial kinetic energy density read in
  atomic valenz-charges read in
  non local Contribution for L=           1  read in
    real space projection operators read in
  non local Contribution for L=           1  read in
    real space projection operators read in
  non local Contribution for L=           2  read in
    real space projection operators read in
  non local Contribution for L=           2  read in
    real space projection operators read in
  non local Contribution for L=           0  read in
    real space projection operators read in
  non local Contribution for L=           0  read in
    real space projection operators read in
    PAW grid and wavefunctions read in
 
   number of l-projection  operators is LMAX  =           6
   number of lm-projection operators is LMMAX =          18
 
 POTCAR:    PAW_PBE N 08Apr2002                   
  local pseudopotential read in
  partial core-charges read in
  partial kinetic energy density read in
  atomic valenz-charges read in
  non local Contribution for L=           0  read in
    real space projection operators read in
  non local Contribution for L=           0  read in
    real space projection operators read in
  non local Contribution for L=           1  read in
    real space projection operators read in
  non local Contribution for L=           1  read in
    real space projection operators read in
    PAW grid and wavefunctions read in
 
   number of l-projection  operators is LMAX  =           4
   number of lm-projection operators is LMMAX =           8
 
 POTCAR:    PAW_PBE H 15Jun2001                   
  local pseudopotential read in
  atomic valenz-charges read in
  non local Contribution for L=           0  read in
    real space projection operators read in
  non local Contribution for L=           0  read in
    real space projection operators read in
  non local Contribution for L=           1  read in
    real space projection operators read in
    PAW grid and wavefunctions read in
 
   number of l-projection  operators is LMAX  =           3
   number of lm-projection operators is LMMAX =           5
 
 Optimization of the real space projectors (new method)

 maximal supplied QI-value         = 17.57
 optimisation between [QCUT,QGAM] = [ 11.42, 22.85] = [ 36.54,146.17] Ry 
 Optimized for a Real-space Cutoff    1.31 Angstroem

   l    n(q)    QCUT    max X(q) W(low)/X(q) W(high)/X(q)  e(spline) 
   1      8    11.423     3.161    0.25E-05    0.13E-05    0.20E-07
   1      8    11.423     4.587    0.10E-03    0.11E-03    0.10E-06
   2      8    11.423    77.526    0.37E-03    0.29E-04    0.84E-07
   2      8    11.423    70.508    0.36E-03    0.29E-04    0.82E-07
   0      9    11.423     3.378    0.19E-04    0.25E-04    0.21E-07
   0      9    11.423    19.373    0.37E-04    0.19E-04    0.27E-07
 Optimization of the real space projectors (new method)

 maximal supplied QI-value         = 25.13
 optimisation between [QCUT,QGAM] = [ 11.31, 22.87] = [ 35.82,146.48] Ry 
 Optimized for a Real-space Cutoff    1.27 Angstroem

   l    n(q)    QCUT    max X(q) W(low)/X(q) W(high)/X(q)  e(spline) 
   0      9    11.310    79.467    0.75E-04    0.16E-03    0.36E-06
   0      9    11.310    66.151    0.74E-04    0.16E-03    0.36E-06
   1      8    11.310    17.416    0.35E-03    0.12E-03    0.95E-06
   1      8    11.310    12.382    0.37E-03    0.13E-03    0.98E-06
 Optimization of the real space projectors (new method)

 maximal supplied QI-value         = 34.20
 optimisation between [QCUT,QGAM] = [ 11.29, 22.57] = [ 35.68,142.71] Ry 
 Optimized for a Real-space Cutoff    1.16 Angstroem

   l    n(q)    QCUT    max X(q) W(low)/X(q) W(high)/X(q)  e(spline) 
   0      8    11.287    19.460    0.40E-03    0.73E-03    0.16E-06
   0      8    11.287    12.209    0.38E-03    0.70E-03    0.15E-06
   1      7    11.287     4.655    0.22E-03    0.25E-04    0.22E-06
  PAW_PBE Ru_sv 28Jan2005               :
 energy of atom  1       EATOM=-2594.4689
 kinetic energy error for atom=    0.0182 (will be added to EATOM!!)
  PAW_PBE N 08Apr2002                   :
 energy of atom  2       EATOM= -264.5486
 kinetic energy error for atom=    0.0138 (will be added to EATOM!!)
  PAW_PBE H 15Jun2001                   :
 energy of atom  3       EATOM=  -12.4884
 kinetic energy error for atom=    0.0020 (will be added to EATOM!!)
 
 
 POSCAR: Ru(001)
  positions in direct lattice
  velocities in cartesian coordinates
 exchange correlation table for  LEXCH =        8
   RHO(1)=    0.500       N(1)  =     2000
   RHO(2)=  100.500       N(2)  =     4000
 


--------------------------------------------------------------------------------------------------------


 ion  position               nearest neighbor table
   1  0.083  0.167  0.000-  22 2.67  19 2.67  17 2.67  11 2.73   2 2.73   4 2.73  16 2.73   3 2.73
                             6 2.73
   2  0.333  0.167  0.000-  17 2.67  20 2.67  18 2.67  12 2.73  11 2.73   1 2.73   7 2.73   4 2.73
                             5 2.73
   3  0.083  0.417  0.000-  24 2.67  25 2.67  19 2.67   4 2.73   1 2.73   8 2.73  10 2.73   9 2.73
                             6 2.73
   4  0.333  0.417  0.000-  26 2.67  19 2.67  20 2.67   7 2.73   3 2.73   1 2.73   2 2.73  13 2.73
                            10 2.73
   5  0.583  0.167  0.000-  23 2.67  18 2.67  21 2.67   6 2.73  15 2.73   8 2.73  12 2.73   2 2.73
                             7 2.73
   6  0.833  0.167  0.000-  21 2.67  24 2.67  22 2.67   5 2.73  15 2.73  16 2.73   8 2.73   3 2.73
                             1 2.73
   7  0.583  0.417  0.000-  20 2.67  29 2.67  23 2.67   4 2.73   2 2.73   8 2.73  14 2.73  13 2.73
                             5 2.73
   8  0.833  0.417  0.000-  30 2.67  23 2.67  24 2.67   6 2.73   5 2.73   7 2.73   3 2.73   9 2.73
                            14 2.73
   9  0.083  0.667  0.000-  27 2.67  30 2.67  25 2.67  12 2.73  10 2.73  11 2.73   3 2.73   8 2.73
                            14 2.73
  10  0.333  0.667  0.000-  28 2.67  25 2.67  26 2.67  15 2.73   9 2.73  13 2.73  12 2.73   3 2.73
                             4 2.73
  11  0.083  0.917  0.000-  32 2.67  17 2.67  27 2.67   1 2.73   2 2.73  12 2.73   9 2.73  14 2.73
                            16 2.73
  12  0.333  0.917  0.000-  27 2.67  18 2.67  28 2.67   2 2.73   9 2.73   5 2.73  15 2.73  11 2.73
                            10 2.73
  13  0.583  0.667  0.000-  31 2.67  26 2.67  29 2.67  14 2.73  16 2.73  10 2.73  15 2.73   7 2.73
                             4 2.73
  14  0.833  0.667  0.000-  29 2.67  32 2.67  30 2.67  13 2.73  16 2.73   7 2.73  11 2.73   8 2.73
                             9 2.73
  15  0.583  0.917  0.000-  28 2.67  21 2.67  31 2.67   6 2.73   5 2.73  16 2.73  10 2.73  12 2.73
                            13 2.73
  16  0.833  0.917  0.000-  31 2.67  22 2.67  32 2.67  13 2.73  15 2.73   6 2.73  14 2.73   1 2.73
                            11 2.73
  17  0.167  0.083  0.123-  34 2.64  43 2.64  33 2.64  11 2.67   2 2.67   1 2.67  32 2.73  22 2.73
                            18 2.73  27 2.73  19 2.73  20 2.73
  18  0.417  0.083  0.123-  34 2.64  44 2.64  37 2.64  12 2.67   5 2.67   2 2.67  27 2.73  17 2.73
                            21 2.73  28 2.73  20 2.73  23 2.73
  19  0.167  0.333  0.123-  35 2.64  33 2.64  36 2.64   4 2.67   1 2.67   3 2.67  24 2.73  25 2.73
                            26 2.73  22 2.73  20 2.73  17 2.73
  20  0.417  0.333  0.123-  39 2.65  36 2.65  34 2.65   7 2.67   2 2.67   4 2.67  26 2.73  23 2.73
                            29 2.73  18 2.73  19 2.73  17 2.73
  21  0.667  0.083  0.123-  38 2.64  37 2.64  47 2.65   6 2.67  15 2.67   5 2.67  28 2.73  18 2.73
                            31 2.73  23 2.73  22 2.73  24 2.73
  22  0.917  0.083  0.123-  38 2.64  33 2.64  48 2.65  16 2.67   1 2.67   6 2.67  17 2.73  31 2.73
                            24 2.73  19 2.73  32 2.73  21 2.73
  23  0.667  0.333  0.123-  40 2.64  37 2.64  39 2.64   8 2.67   5 2.67   7 2.67  29 2.73  20 2.73
                            30 2.73  18 2.73  21 2.73  24 2.73
  24  0.917  0.333  0.123-  38 2.64  35 2.64  40 2.64   3 2.67   6 2.67   8 2.67  19 2.73  25 2.73
                            30 2.73  22 2.73  21 2.73  23 2.73
  25  0.167  0.583  0.123-  42 2.63  35 2.64  41 2.65   3 2.67  10 2.67   9 2.67  24 2.73  30 2.73
                            19 2.73  26 2.73  27 2.73  28 2.73
  26  0.417  0.583  0.123-  45 2.64  36 2.64  42 2.64   4 2.67  13 2.67  10 2.67  20 2.73  19 2.73
                            25 2.73  28 2.73  29 2.73  31 2.73
  27  0.167  0.833  0.123-  44 2.65  43 2.65  41 2.65  12 2.67   9 2.67  11 2.67  32 2.73  18 2.73
                            17 2.73  28 2.73  25 2.73  30 2.73
  28  0.417  0.833  0.123-  47 2.64  44 2.64  42 2.64  15 2.67  10 2.67  12 2.67  21 2.73  31 2.73
                            27 2.73  18 2.73  26 2.73  25 2.73
  29  0.667  0.583  0.123-  45 2.64  39 2.64  46 2.64  14 2.67   7 2.67  13 2.67  23 2.73  20 2.73
                            30 2.73  26 2.73  31 2.73  32 2.73
  30  0.917  0.583  0.123-  46 2.63  40 2.64  41 2.65   8 2.67   9 2.67  14 2.67  25 2.73  23 2.73
                            24 2.73  29 2.73  32 2.73  27 2.73
  31  0.667  0.833  0.123-  48 2.64  47 2.64  45 2.65  16 2.67  13 2.67  15 2.67  22 2.73  28 2.73
                            21 2.73  29 2.73  26 2.73  32 2.73
  32  0.917  0.833  0.123-  48 2.64  43 2.64  46 2.65  11 2.67  14 2.67  16 2.67  17 2.73  27 2.73
                            22 2.73  30 2.73  31 2.73  29 2.73
  33  0.084  0.167  0.245-  49 2.59  51 2.59  54 2.59  17 2.64  19 2.64  22 2.64  43 2.72  34 2.72
                            36 2.72  35 2.73  38 2.73  48 2.73
  34  0.332  0.165  0.245-  52 2.54  50 2.59  49 2.59  17 2.64  18 2.64  20 2.65  44 2.71  43 2.71
                            33 2.72  37 2.72  39 2.75  36 2.75
  35  0.084  0.417  0.245-  57 2.60  51 2.60  56 2.60  19 2.64  25 2.64  24 2.64  36 2.71  42 2.71
                            41 2.72  38 2.72  33 2.73  40 2.73
  36  0.333  0.417  0.245-  52 2.60  51 2.60  26 2.64  19 2.64  58 2.64  20 2.65  42 2.71  35 2.71
                            45 2.72  33 2.72  39 2.75  34 2.75
  37  0.583  0.167  0.245-  50 2.59  55 2.59  53 2.59  18 2.64  23 2.64  21 2.64  44 2.72  34 2.72
                            39 2.72  40 2.73  38 2.73  47 2.73
  38  0.834  0.167  0.245-  53 2.59  54 2.59  56 2.60  24 2.64  21 2.64  22 2.64  40 2.72  35 2.72
                            37 2.73  33 2.73  48 2.74  47 2.74
  39  0.585  0.417  0.245-  52 2.60  55 2.60  29 2.64  23 2.64  61 2.64  20 2.65  46 2.71  40 2.71
                            45 2.72  37 2.72  36 2.75  34 2.75
  40  0.833  0.417  0.245-  62 2.60  55 2.60  56 2.60  23 2.64  30 2.64  24 2.64  39 2.71  46 2.71
                            41 2.72  38 2.72  37 2.73  35 2.73
  41  0.083  0.666  0.245-  59 2.58  62 2.59  57 2.59  30 2.65  25 2.65  27 2.65  42 2.72  46 2.72
                            35 2.72  40 2.72  43 2.74  44 2.74
  42  0.332  0.666  0.245-  57 2.59  60 2.60  25 2.63  26 2.64  28 2.64  58 2.68  36 2.71  35 2.71
                            41 2.72  47 2.73  44 2.73  45 2.73
  43  0.083  0.917  0.245-  64 2.59  49 2.59  59 2.60  17 2.64  32 2.64  27 2.65  34 2.71  48 2.72
                            33 2.72  46 2.73  44 2.74  41 2.74
  44  0.334  0.917  0.245-  60 2.59  50 2.59  59 2.60  18 2.64  28 2.64  27 2.65  34 2.71  47 2.72
                            37 2.72  42 2.73  43 2.74  41 2.74
  45  0.583  0.666  0.245-  63 2.63  26 2.64  29 2.64  58 2.64  61 2.64  31 2.65  36 2.72  39 2.72
                            48 2.73  47 2.73  46 2.73  42 2.73
  46  0.834  0.666  0.245-  62 2.59  64 2.60  30 2.63  29 2.64  32 2.65  61 2.68  39 2.71  40 2.71
                            41 2.72  48 2.73  43 2.73  45 2.73
  47  0.583  0.916  0.245-  63 2.56  60 2.59  53 2.60  28 2.64  31 2.64  21 2.65  44 2.72  42 2.73
                            45 2.73  48 2.73  37 2.73  38 2.74
  48  0.833  0.916  0.245-  63 2.56  64 2.59  54 2.60  32 2.64  31 2.64  22 2.65  43 2.72  46 2.73
                            45 2.73  47 2.73  33 2.73  38 2.74
  49  0.166  0.083  0.363-  43 2.59  33 2.59  34 2.59  52 2.68  64 2.71  54 2.72  51 2.72  59 2.74
                            50 2.74
  50  0.417  0.083  0.363-  44 2.59  37 2.59  34 2.59  52 2.68  60 2.71  53 2.72  55 2.72  59 2.74
                            49 2.74
  51  0.165  0.332  0.363-  33 2.59  35 2.60  36 2.60  54 2.71  56 2.72  49 2.72  57 2.73  52 2.73
                            58 2.75
  52  0.413  0.327  0.361-  34 2.54  39 2.60  36 2.60  50 2.68  49 2.68  55 2.73  51 2.73  61 2.76
                            58 2.76
  53  0.667  0.084  0.363-  38 2.59  37 2.59  47 2.60  63 2.67  55 2.71  50 2.72  54 2.72  56 2.72
                            60 2.73
  54  0.917  0.084  0.363-  38 2.59  33 2.59  48 2.60  63 2.67  51 2.71  49 2.72  53 2.72  56 2.72
                            64 2.73
  55  0.667  0.332  0.363-  37 2.59  40 2.60  39 2.60  53 2.71  56 2.72  50 2.72  62 2.73  52 2.73
                            61 2.75
  56  0.917  0.334  0.363-  38 2.60  35 2.60  40 2.60  51 2.72  55 2.72  54 2.72  53 2.72  57 2.73
                            62 2.73
  57  0.168  0.583  0.363-  42 2.59  41 2.59  35 2.60  59 2.72  60 2.72  51 2.73  56 2.73  62 2.74
                            58 2.75
  58  0.419  0.582  0.367-  65 2.11  45 2.64  36 2.64  61 2.66  42 2.68  51 2.75  57 2.75  52 2.76
                            60 2.76  63 2.78
  59  0.166  0.832  0.363-  41 2.58  43 2.60  44 2.60  62 2.72  57 2.72  60 2.72  64 2.72  50 2.74
                            49 2.74
  60  0.416  0.834  0.363-  44 2.59  47 2.59  42 2.60  50 2.71  59 2.72  57 2.72  53 2.73  63 2.73
                            58 2.76
  61  0.663  0.582  0.367-  65 2.11  45 2.64  39 2.64  58 2.66  46 2.68  55 2.75  62 2.75  52 2.76
                            64 2.76  63 2.78
  62  0.916  0.583  0.363-  46 2.59  41 2.59  40 2.60  59 2.72  64 2.72  55 2.73  56 2.73  57 2.74
                            61 2.75
  63  0.670  0.840  0.362-  48 2.56  47 2.56  45 2.63  54 2.67  53 2.67  64 2.73  60 2.73  61 2.78
                            58 2.78
  64  0.918  0.834  0.363-  43 2.59  48 2.59  46 2.60  49 2.71  59 2.72  62 2.72  54 2.73  63 2.73
                            61 2.76
  65  0.540  0.580  0.462-  67 1.02  66 1.02  58 2.11  61 2.11
  66  0.584  0.668  0.496-  65 1.02
  67  0.496  0.493  0.497-  65 1.02
 
  LATTYP: Found a hexagonal cell.
 ALAT       =    10.9034004211
 C/A-ratio  =     1.6006841223
  
  Lattice vectors:
  
 A1 = (  10.9034004211,   0.0000000000,   0.0000000000)
 A2 = (  -5.4517002106,   9.4426217523,   0.0000000000)
 A3 = (   0.0000000000,   0.0000000000,  17.4528999329)


Analysis of symmetry for initial positions (statically):
=====================================================================
 Subroutine PRICEL returns:
 Original cell was already a primitive cell.
 

 Routine SETGRP: Setting up the symmetry group for a 
 hexagonal supercell.


 Subroutine GETGRP returns: Found  1 space group operations
 (whereof  1 operations were pure point group operations)
 out of a pool of 24 trial point group operations.


The static configuration has the point symmetry C_1 .


Analysis of symmetry for dynamics (positions and initial velocities):
=====================================================================
 Subroutine PRICEL returns:
 Original cell was already a primitive cell.
 

 Routine SETGRP: Setting up the symmetry group for a 
 hexagonal supercell.


 Subroutine GETGRP returns: Found  1 space group operations
 (whereof  1 operations were pure point group operations)
 out of a pool of 24 trial point group operations.


The dynamic configuration has the point symmetry C_1 .


Analysis of constrained symmetry for selective dynamics:
=====================================================================
 Subroutine PRICEL returns:
 Original cell was already a primitive cell.
 

 Routine SETGRP: Setting up the symmetry group for a 
 hexagonal supercell.


 Subroutine GETGRP returns: Found  1 space group operations
 (whereof  1 operations were pure point group operations)
 out of a pool of 24 trial point group operations.


The constrained configuration has the point symmetry C_1 .


 Subroutine INISYM returns: Found  1 space group operations
 (whereof  1 operations are pure point group operations),
 and found     1 'primitive' translations


----------------------------------------------------------------------------------------

                                     Primitive cell                                     

  volume of cell :    1796.8927

  direct lattice vectors                    reciprocal lattice vectors
    10.903400421  0.000000000  0.000000000     0.091714508  0.052951396  0.000000000
    -5.451700211  9.442621752  0.000000000     0.000000000  0.105902791  0.000000000
     0.000000000  0.000000000 17.452899933     0.000000000  0.000000000  0.057297068

  length of vectors
    10.903400421 10.903400421 17.452899933     0.105902791  0.105902791  0.057297068

  position of ions in fractional coordinates (direct lattice)
     0.083330003  0.166669999  0.000000000
     0.333329992  0.166669999  0.000000000
     0.083329998  0.416670010  0.000000000
     0.333329998  0.416670010  0.000000000
     0.583330014  0.166669999  0.000000000
     0.833329926  0.166669999  0.000000000
     0.583329976  0.416670010  0.000000000
     0.833329976  0.416670010  0.000000000
     0.083330016  0.666670047  0.000000000
     0.333330016  0.666670047  0.000000000
     0.083329987  0.916670033  0.000000000
     0.333329987  0.916670033  0.000000000
     0.583330016  0.666670047  0.000000000
     0.833329950  0.666670047  0.000000000
     0.583329987  0.916670033  0.000000000
     0.833329944  0.916670033  0.000000000
     0.166669997  0.083330000  0.123239998
     0.416669986  0.083330000  0.123239998
     0.166670009  0.333330024  0.123239998
     0.416670019  0.333330024  0.123239998
     0.666669986  0.083330000  0.123239998
     0.916670029  0.083330000  0.123239998
     0.666669998  0.333330024  0.123239998
     0.916670085  0.333330024  0.123239998
     0.166669989  0.583329985  0.123239998
     0.416670000  0.583329985  0.123239998
     0.166670040  0.833330022  0.123239998
     0.416670040  0.833330022  0.123239998
     0.666670022  0.583329985  0.123239998
     0.916670022  0.583329985  0.123239998
     0.666670040  0.833330022  0.123239998
     0.916670084  0.833330022  0.123239998
     0.083619352  0.166798029  0.244867647
     0.332408051  0.164823460  0.244960074
     0.083588831  0.416743328  0.244842678
     0.332765145  0.417382126  0.245065700
     0.583183232  0.166797972  0.244864443
     0.833594551  0.167187593  0.244823152
     0.584613407  0.417374243  0.245065779
     0.833148480  0.416738289  0.244845957
     0.082980042  0.665967216  0.245270716
     0.332193752  0.665953024  0.244745713
     0.083059039  0.917185834  0.244943833
     0.334117510  0.917191467  0.244937064
     0.582779315  0.665553397  0.244775497
     0.833739681  0.665935445  0.244754628
     0.582768740  0.915872943  0.245052533
     0.833101372  0.915870949  0.245051747
     0.165653901  0.082690342  0.363062747
     0.417026940  0.082680147  0.363059381
     0.165342468  0.332185144  0.363394874
     0.413311683  0.326608794  0.361338146
     0.667058654  0.083850597  0.362854386
     0.916791845  0.083858154  0.362860405
     0.666812666  0.332197254  0.363397772
     0.916847673  0.333687787  0.363330357
     0.167549531  0.583459872  0.363091540
     0.419383602  0.582318541  0.367444707
     0.165970894  0.831951498  0.363020483
     0.416479746  0.834032558  0.362943281
     0.662892047  0.582311735  0.367477963
     0.915910578  0.583463342  0.363089625
     0.670161214  0.840314685  0.362347654
     0.917541497  0.834043717  0.362950874
     0.540004924  0.580192338  0.461711106
     0.583921261  0.668084025  0.496003432
     0.496406824  0.493222985  0.496616813

  ion indices of the primitive-cell ions
   primitive index   ion index
                 1           1
                 2           2
                 3           3
                 4           4
                 5           5
                 6           6
                 7           7
                 8           8
                 9           9
                10          10
                11          11
                12          12
                13          13
                14          14
                15          15
                16          16
                17          17
                18          18
                19          19
                20          20
                21          21
                22          22
                23          23
                24          24
                25          25
                26          26
                27          27
                28          28
                29          29
                30          30
                31          31
                32          32
                33          33
                34          34
                35          35
                36          36
                37          37
                38          38
                39          39
                40          40
                41          41
                42          42
                43          43
                44          44
                45          45
                46          46
                47          47
                48          48
                49          49
                50          50
                51          51
                52          52
                53          53
                54          54
                55          55
                56          56
                57          57
                58          58
                59          59
                60          60
                61          61
                62          62
                63          63
                64          64
                65          65
                66          66
                67          67

----------------------------------------------------------------------------------------

 
 
 KPOINTS: Kpoints                                 

Automatic generation of k-mesh.
 Grid dimensions read from file:
 generate k-points for:    3    3    1

 Generating k-lattice:

  Cartesian coordinates                     Fractional coordinates (reciprocal lattice)
     0.030571503  0.017650465  0.000000000     0.333333333  0.000000000  0.000000000
     0.000000000  0.035300930  0.000000000     0.000000000  0.333333333  0.000000000
     0.000000000  0.000000000  0.057297068     0.000000000  0.000000000  1.000000000

  Length of vectors
     0.035300930  0.035300930  0.057297068

  Shift w.r.t. Gamma in fractional coordinates (k-lattice)
     0.000000000  0.000000000  0.000000000

 
 Subroutine IBZKPT returns following result:
 ===========================================
 
 Found      5 irreducible k-points:
 
 Following reciprocal coordinates:
            Coordinates               Weight
  0.000000  0.000000  0.000000      1.000000
  0.333333  0.000000  0.000000      2.000000
  0.000000  0.333333  0.000000      2.000000
 -0.333333  0.333333  0.000000      2.000000
  0.333333  0.333333  0.000000      2.000000
 
 Following cartesian coordinates:
            Coordinates               Weight
  0.000000  0.000000  0.000000      1.000000
  0.030572  0.017650  0.000000      2.000000
  0.000000  0.035301  0.000000      2.000000
 -0.030572  0.017650  0.000000      2.000000
  0.030572  0.052951  0.000000      2.000000
 


--------------------------------------------------------------------------------------------------------




 Dimension of arrays:
   k-points           NKPTS =      5   k-points in BZ     NKDIM =      5   number of bands    NBANDS=    618
   number of dos      NEDOS =    301   number of ions     NIONS =     67
   non local maximal  LDIM  =      6   non local SUM 2l+1 LMDIM =     18
   total plane-waves  NPLWV = 345600
   max r-space proj   IRMAX =   1861   max aug-charges    IRDMAX=   6234
   dimension x,y,z NGX =    60 NGY =   60 NGZ =   96
   dimension x,y,z NGXF=   120 NGYF=  120 NGZF=  192
   support grid    NGXF=   120 NGYF=  120 NGZF=  192
   ions per type =              64   1   2
   NGX,Y,Z   is equivalent  to a cutoff of   9.15,  9.15,  9.14 a.u.
   NGXF,Y,Z  is equivalent  to a cutoff of  18.30, 18.30, 18.29 a.u.

 SYSTEM =  Generated By Q_robot                    
 POSCAR =  Ru(001)                                 

 Startparameter for this run:
   NWRITE =      0    write-flag & timer
   PREC   = n         normal or accurate (medium, high low for compatibility)
   ISTART =      0    job   : 0-new  1-cont  2-samecut
   ICHARG =      2    charge: 1-file 2-atom 10-const
   ISPIN  =      1    spin polarized calculation?
   LNONCOLLINEAR =      F non collinear calculations
   LSORBIT =      F    spin-orbit coupling
   INIWAV =      1    electr: 0-lowe 1-rand  2-diag
   LASPH  =      F    aspherical Exc in radial PAW
 Electronic Relaxation 1
   ENCUT  =  500.0 eV  36.75 Ry    6.06 a.u.  19.88 19.88 31.82*2*pi/ulx,y,z
   ENINI  =  500.0     initial cutoff
   ENAUG  =  627.1 eV  augmentation charge cutoff
   NELM   =    400;   NELMIN=  2; NELMDL=  0     # of ELM steps 
   EDIFF  = 0.1E-04   stopping-criterion for ELM
   LREAL  =      T    real-space projection
   NLSPLINE    = F    spline interpolate recip. space projectors
   LCOMPAT=      F    compatible to vasp.4.4
   GGA_COMPAT  = T    GGA compatible to vasp.4.4-vasp.4.6
   LMAXPAW     = -100 max onsite density
   LMAXMIX     =    2 max onsite mixed and CHGCAR
   VOSKOWN=      0    Vosko Wilk Nusair interpolation
   ROPT   =   -0.00050  -0.00050  -0.00050
 Ionic relaxation
   EDIFFG = -.3E-01   stopping-criterion for IOM
   NSW    =    100    number of steps for IOM
   NBLOCK =      1;   KBLOCK =    100    inner block; outer block 
   IBRION =      2    ionic relax: 0-MD 1-quasi-New 2-CG
   NFREE  =      1    steps in history (QN), initial steepest desc. (CG)
   ISIF   =      2    stress and relaxation
   IWAVPR =     11    prediction:  0-non 1-charg 2-wave 3-comb
   ISYM   =      2    0-nonsym 1-usesym 2-fastsym
   LCORR  =      T    Harris-Foulkes like correction to forces

   POTIM  = 0.1000    time-step for ionic-motion
   TEIN   =    0.0    initial temperature
   TEBEG  =    0.0;   TEEND  =   0.0 temperature during run
   SMASS  =  -3.00    Nose mass-parameter (am)
   estimated Nose-frequenzy (Omega)   =  0.10E-29 period in steps = 0.63E+47 mass=  -0.272E-26a.u.
   SCALEE = 1.0000    scale energy and forces
   NPACO  =    256;   APACO  = 10.0  distance and # of slots for P.C.
   PSTRESS=    0.0 pullay stress

  Mass of Ions in am
   POMASS = 101.07 14.00  1.00
  Ionic Valenz
   ZVAL   =  16.00  5.00  1.00
  Atomic Wigner-Seitz radii
   RWIGS  =  -1.00 -1.00 -1.00
  virtual crystal weights 
   VCA    =   1.00  1.00  1.00
   NELECT =    1031.0000    total number of electrons
   NUPDOWN=      -1.0000    fix difference up-down

 DOS related values:
   EMIN   =  10.00;   EMAX   =-10.00  energy-range for DOS
   EFERMI =   0.00;   METHOD = LEGACY      
   ISMEAR =     0;   SIGMA  =   0.01  broadening in eV -4-tet -1-fermi 0-gaus

 Electronic relaxation 2 (details)
   IALGO  =     68    algorithm
   LDIAG  =      T    sub-space diagonalisation (order eigenvalues)
   LSUBROT=      F    optimize rotation matrix (better conditioning)
   TURBO    =      0    0=normal 1=particle mesh
   IRESTART =      0    0=no restart 2=restart with 2 vectors
   NREBOOT  =      0    no. of reboots
   NMIN     =      0    reboot dimension
   EREF     =   0.00    reference energy to select bands
   IMIX   =      4    mixing-type and parameters
     AMIX     =   0.40;   BMIX     =  1.00
     AMIX_MAG =   1.60;   BMIX_MAG =  1.00
     AMIN     =   0.10
     WC   =   100.;   INIMIX=   1;  MIXPRE=   1;  MAXMIX= -45

 Intra band minimization:
   WEIMIN = 0.0010     energy-eigenvalue tresh-hold
   EBREAK =  0.40E-08  absolut break condition
   DEPER  =   0.30     relativ break condition  

   TIME   =   0.40     timestep for ELM

  volume/ion in A,a.u.               =      26.82       180.99
  Fermi-wavevector in a.u.,A,eV,Ry     =   1.360359  2.570707 25.178639  1.850578
  Thomas-Fermi vector in A             =   2.487028
 
 Write flags
   LWAVE        =      F    write WAVECAR
   LDOWNSAMPLE  =      F    k-point downsampling of WAVECAR
   LCHARG       =      F    write CHGCAR
   LVTOT        =      F    write LOCPOT, total local potential
   LVHAR        =      F    write LOCPOT, Hartree potential only
   LELF         =      F    write electronic localiz. function (ELF)
   LORBIT       =     11    0 simple, 1 ext, 2 COOP (PROOUT), +10 PAW based schemes


 Dipole corrections
   LMONO  =      F    monopole corrections only (constant potential shift)
   LDIPOL =      F    correct potential (dipole corrections)
   IDIPOL =      0    1-x, 2-y, 3-z, 4-all directions 
   EPSILON=  1.0000000 bulk dielectric constant

 Exchange correlation treatment:
   GGA     =    PE    GGA type
   LEXCH   =     8    internal setting for exchange type
   LIBXC   =     F    Libxc                    
   VOSKOWN =     0    Vosko Wilk Nusair interpolation
   LHFCALC =     F    Hartree Fock is set to
   LHFONE  =     F    Hartree Fock one center treatment
   AEXX    =    0.0000 exact exchange contribution

 Linear response parameters
   LEPSILON=     F    determine dielectric tensor
   LRPA    =     F    only Hartree local field effects (RPA)
   LNABLA  =     F    use nabla operator in PAW spheres
   LVEL    =     F    velocity operator in full k-point grid
   CSHIFT  =0.1000    complex shift for real part using Kramers Kronig
   OMEGAMAX=  -1.0    maximum frequency
   DEG_THRESHOLD= 0.2000000E-02 threshold for treating states as degnerate
   RTIME   =   -0.100 relaxation time in fs
  (WPLASMAI=    0.000 imaginary part of plasma frequency in eV, 0.658/RTIME)
   DFIELD  = 0.0000000 0.0000000 0.0000000 field for delta impulse in time
 
  Optional k-point grid parameters
   LKPOINTS_OPT  =     F    use optional k-point grid
   KPOINTS_OPT_MODE=     1    mode for optional k-point grid
 
 Orbital magnetization related:
   ORBITALMAG=     F  switch on orbital magnetization
   LCHIMAG   =     F  perturbation theory with respect to B field
   DQ        =  0.001000  dq finite difference perturbation B field
   LLRAUG    =     F  two centre corrections for induced B field
   LBONE     =     F  B-component reconstruction in AE one-centre
   LVGVCALC  =     T  calculate vGv susceptibility
   LVGVAPPL  =     F  apply vGv susceptibility instead of pGv for G=0

 Random number generation:
   RANDOM_GENERATOR = DEFAULT
   PCG_SEED         = not used


--------------------------------------------------------------------------------------------------------


 conjugate gradient relaxation of ions
   using selective dynamics as specified on POSCAR
 charge density and potential will be updated during run
 non-spin polarized calculation
 RMM-DIIS sequential band-by-band and
  variant of blocked Davidson during initial phase
 perform sub-space diagonalisation
    before iterative eigenvector-optimisation
 modified Broyden-mixing scheme, WC =      100.0
 initial mixing is a Kerker type mixing with AMIX =  0.4000 and BMIX =      1.0000
 Hartree-type preconditioning will be used
 using additional bands          102
 real space projection scheme for non local part
 use partial core corrections
 calculate Harris-corrections to forces 
   (improved forces if not selfconsistent)
 use gradient corrections 
 use of overlap-Matrix (Vanderbilt PP)
 Gauss-broadening in eV      SIGMA  =   0.01


--------------------------------------------------------------------------------------------------------


  energy-cutoff  :      500.00
  volume of cell :     1796.89
      direct lattice vectors                 reciprocal lattice vectors
    10.903400421  0.000000000  0.000000000     0.091714508  0.052951396  0.000000000
    -5.451700211  9.442621752  0.000000000     0.000000000  0.105902791  0.000000000
     0.000000000  0.000000000 17.452899933     0.000000000  0.000000000  0.057297068

  length of vectors
    10.903400421 10.903400421 17.452899933     0.105902791  0.105902791  0.057297068


 
 k-points in units of 2pi/SCALE and weight: Kpoints                                 
   0.00000000  0.00000000  0.00000000       0.111
   0.03057150  0.01765047  0.00000000       0.222
   0.00000000  0.03530093  0.00000000       0.222
  -0.03057150  0.01765047  0.00000000       0.222
   0.03057150  0.05295140  0.00000000       0.222
 
 k-points in reciprocal lattice and weights: Kpoints                                 
   0.00000000  0.00000000  0.00000000       0.111
   0.33333333  0.00000000  0.00000000       0.222
   0.00000000  0.33333333  0.00000000       0.222
  -0.33333333  0.33333333  0.00000000       0.222
   0.33333333  0.33333333  0.00000000       0.222
 
 position of ions in fractional coordinates (direct lattice) 
   0.08333000  0.16667000  0.00000000
   0.33332999  0.16667000  0.00000000
   0.08333000  0.41667001  0.00000000
   0.33333000  0.41667001  0.00000000
   0.58333001  0.16667000  0.00000000
   0.83332993  0.16667000  0.00000000
   0.58332998  0.41667001  0.00000000
   0.83332998  0.41667001  0.00000000
   0.08333002  0.66667005  0.00000000
   0.33333002  0.66667005  0.00000000
   0.08332999  0.91667003  0.00000000
   0.33332999  0.91667003  0.00000000
   0.58333002  0.66667005  0.00000000
   0.83332995  0.66667005  0.00000000
   0.58332999  0.91667003  0.00000000
   0.83332994  0.91667003  0.00000000
   0.16667000  0.08333000  0.12324000
   0.41666999  0.08333000  0.12324000
   0.16667001  0.33333002  0.12324000
   0.41667002  0.33333002  0.12324000
   0.66666999  0.08333000  0.12324000
   0.91667003  0.08333000  0.12324000
   0.66667000  0.33333002  0.12324000
   0.91667008  0.33333002  0.12324000
   0.16666999  0.58332998  0.12324000
   0.41667000  0.58332998  0.12324000
   0.16667004  0.83333002  0.12324000
   0.41667004  0.83333002  0.12324000
   0.66667002  0.58332998  0.12324000
   0.91667002  0.58332998  0.12324000
   0.66667004  0.83333002  0.12324000
   0.91667008  0.83333002  0.12324000
   0.08361935  0.16679803  0.24486765
   0.33240805  0.16482346  0.24496007
   0.08358883  0.41674333  0.24484268
   0.33276515  0.41738213  0.24506570
   0.58318323  0.16679797  0.24486444
   0.83359455  0.16718759  0.24482315
   0.58461341  0.41737424  0.24506578
   0.83314848  0.41673829  0.24484596
   0.08298004  0.66596722  0.24527072
   0.33219375  0.66595302  0.24474571
   0.08305904  0.91718583  0.24494383
   0.33411751  0.91719147  0.24493706
   0.58277931  0.66555340  0.24477550
   0.83373968  0.66593545  0.24475463
   0.58276874  0.91587294  0.24505253
   0.83310137  0.91587095  0.24505175
   0.16565390  0.08269034  0.36306275
   0.41702694  0.08268015  0.36305938
   0.16534247  0.33218514  0.36339487
   0.41331168  0.32660879  0.36133815
   0.66705865  0.08385060  0.36285439
   0.91679184  0.08385815  0.36286040
   0.66681267  0.33219725  0.36339777
   0.91684767  0.33368779  0.36333036
   0.16754953  0.58345987  0.36309154
   0.41938360  0.58231854  0.36744471
   0.16597089  0.83195150  0.36302048
   0.41647975  0.83403256  0.36294328
   0.66289205  0.58231173  0.36747796
   0.91591058  0.58346334  0.36308963
   0.67016121  0.84031469  0.36234765
   0.91754150  0.83404372  0.36295087
   0.54000492  0.58019234  0.46171111
   0.58392126  0.66808402  0.49600343
   0.49640682  0.49322298  0.49661681
 
 position of ions in cartesian coordinates  (Angst):
  -0.00005448  1.57380176  0.00000000
   2.72579551  1.57380176  0.00000000
  -1.36297965  3.93445730  0.00000000
   1.36287046  3.93445730  0.00000000
   5.45164585  1.57380176  0.00000000
   8.17749500  1.57380176  0.00000000
   4.08872032  3.93445730  0.00000000
   6.81457043  3.93445730  0.00000000
  -2.72590470  6.29511309  0.00000000
  -0.00005460  6.29511309  0.00000000
  -4.08883000  8.65576839  0.00000000
  -1.36297989  8.65576839  0.00000000
   2.72579551  6.29511309  0.00000000
   5.45164489  6.29511309  0.00000000
   1.36287021  8.65576839  0.00000000
   4.08871985  8.65576839  0.00000000
   1.36297954  0.78685367  2.15089535
   4.08882952  0.78685367  2.15089535
   0.00005448  3.14750934  2.15089535
   2.72590470  3.14750934  2.15089535
   6.81467963  0.78685367  2.15089535
   9.54053020  0.78685367  2.15089535
   5.45175457  3.14750934  2.15089535
   8.17760563  3.14750934  2.15089535
  -1.36287057  5.50816441  2.15089535
   1.36297965  5.50816441  2.15089535
  -2.72579527  7.86882019  2.15089535
   0.00005483  7.86882019  2.15089535
   4.08883000  5.50816441  2.15089535
   6.81468010  5.50816441  2.15089535
   2.72590494  7.86882019  2.15089535
   5.45175552  7.86882019  2.15089535
   0.00240243  1.57501069  4.27365053
   2.72580999  1.55636559  4.27526366
  -1.36055720  3.93514962  4.27321476
   1.35282940  3.94118154  4.27710714
   5.44934776  1.57501016  4.27359462
   8.17755855  1.57868920  4.27287398
   4.09887482  3.94110711  4.27710852
   6.81221927  3.93510203  4.27327198
  -2.72588899  6.28847652  4.28068526
  -0.00853475  6.28834251  4.27152243
  -4.09459624  8.66063891  4.27498020
  -1.35723591  8.66069210  4.27486207
   2.72587863  6.28456899  4.27204225
   5.46011718  6.28817652  4.27167803
   1.36109620  8.64824177  4.27687734
   4.09058400  8.64822295  4.27686361
   1.35538786  0.78081363  6.33649779
   4.09626433  0.78071736  6.33643905
  -0.00817868  3.13669867  6.34229436
   2.72592955  3.08404330  6.30639850
   6.81607929  0.79176947  6.33286129
   9.53897907  0.79184083  6.33296633
   5.45948567  3.13681301  6.34234495
   8.17759153  3.15088756  6.34116837
  -1.35398868  5.50939088  6.33700032
   1.39808123  5.49861372  6.41297570
  -2.72590304  7.85580331  6.33576016
  -0.00585004  7.87545397  6.33441277
   4.05318842  5.49854946  6.41355612
   6.80567256  5.50942365  6.33696690
   2.72589231  7.93477372  6.32401735
   5.45736604  7.87555934  6.33454529
   2.72485522  5.47853679  8.05819773
   2.72453351  6.30846475  8.65669827
   2.72361852  4.65731809  8.66740354
 


--------------------------------------------------------------------------------------------------------


 k-point   1 :   0.0000 0.0000 0.0000  plane waves:   45603
 k-point   2 :   0.3333 0.0000 0.0000  plane waves:   45646
 k-point   3 :   0.0000 0.3333 0.0000  plane waves:   45646
 k-point   4 :  -0.3333 0.3333 0.0000  plane waves:   45646
 k-point   5 :   0.3333 0.3333 0.0000  plane waves:   45600

 maximum and minimum number of plane-waves per node :      2878     2830

 maximum number of plane-waves:     45646
 maximum index in each direction: 
   IXMAX=   20   IYMAX=   19   IZMAX=   31
   IXMIN=  -20   IYMIN=  -20   IZMIN=  -31


 real space projection operators:
  total allocation   :      15931.43 KBytes
  max/ min on nodes  :       1284.62        671.02


 parallel 3D FFT for wavefunctions:
    minimum data exchange during FFTs selected (reduces bandwidth)
 parallel 3D FFT for charge:
    minimum data exchange during FFTs selected (reduces bandwidth)


 total amount of memory used by VASP MPI-rank0   116820. kBytes
=======================================================================

   base      :      30000. kBytes
   nonlr-proj:       3220. kBytes
   fftplans  :       3780. kBytes
   grid      :       6869. kBytes
   one-center:         77. kBytes
   wavefun   :      72874. kBytes
 
     INWAV:  cpu time      0.0001: real time      0.0003
 Broyden mixing: mesh for mixing (old mesh)
   NGX = 39   NGY = 39   NGZ = 63
  (NGX  =120   NGY  =120   NGZ  =192)
  gives a total of  95823 points

 initial charge density was supplied:
 charge density of overlapping atoms calculated
 number of electron    1031.0000000 magnetization 
 keeping initial charge density in first step


--------------------------------------------------------------------------------------------------------


 Maximum index for non-local projection operator          153
 Maximum index for augmentation-charges          325 (set IRDMAX)


--------------------------------------------------------------------------------------------------------


 First call to EWALD:  gamma=   0.146
 Maximum number of real-space cells 3x 3x 2
 Maximum number of reciprocal cells 3x 3x 4

    FEWALD:  cpu time      0.0102: real time      0.0103


--------------------------------------- Ionic step        1  -------------------------------------------




--------------------------------------- Iteration      1(   1)  ---------------------------------------


    POTLOK:  cpu time      0.1154: real time      0.2230
    SETDIJ:  cpu time      0.0082: real time      0.0084
     EDDAV:  cpu time     54.2112: real time     55.5699
       DOS:  cpu time      0.0218: real time      0.0219
    --------------------------------------------
      LOOP:  cpu time     54.3567: real time     55.8231

 eigenvalue-minimisations  :  7556
 total energy-change (2. order) : 0.1595381E+05  (-0.6734576E+05)
 number of electron    1031.0000000 magnetization 
 augmentation part     1031.0000000 magnetization 

 Free energy of the ion-electron system (eV)
  ---------------------------------------------------
  alpha Z        PSCENC =      3956.67890753
  Ewald energy   TEWEN  =    232069.45290396
  -Hartree energ DENC   =   -389622.47296653
  -exchange      EXHF   =         0.00000000
  -V(xc)+E(xc)   XCENC  =      5530.86990057
  PAW double counting   =    139149.63786687  -136024.40645526
  entropy T*S    EENTRO =        -0.00219551
  eigenvalues    EBANDS =     -5440.29443366
  atomic energy  EATOM  =    166334.35052077
  Solvation  Ediel_sol  =         0.00000000
  ---------------------------------------------------
  free energy    TOTEN  =     15953.81404874 eV

  energy without entropy =    15953.81624425  energy(sigma->0) =    15953.81514649


--------------------------------------------------------------------------------------------------------




--------------------------------------- Iteration      1(   2)  ---------------------------------------


     EDDAV:  cpu time     50.5760: real time     52.0475
       DOS:  cpu time      0.0159: real time      0.0160
    --------------------------------------------
      LOOP:  cpu time     50.5920: real time     52.0635

 eigenvalue-minimisations  :  6934
 total energy-change (2. order) :-0.1578467E+05  (-0.1542344E+05)
 number of electron    1031.0000000 magnetization 
 augmentation part     1031.0000000 magnetization 

 Free energy of the ion-electron system (eV)
  ---------------------------------------------------
  alpha Z        PSCENC =      3956.67890753
  Ewald energy   TEWEN  =    232069.45290396
  -Hartree energ DENC   =   -389622.47296653
  -exchange      EXHF   =         0.00000000
  -V(xc)+E(xc)   XCENC  =      5530.86990057
  PAW double counting   =    139149.63786687  -136024.40645526
  entropy T*S    EENTRO =        -0.00379161
  eigenvalues    EBANDS =    -21224.96320215
  atomic energy  EATOM  =    166334.35052077
  Solvation  Ediel_sol  =         0.00000000
  ---------------------------------------------------
  free energy    TOTEN  =       169.14368415 eV

  energy without entropy =      169.14747576  energy(sigma->0) =      169.14557995


--------------------------------------------------------------------------------------------------------




--------------------------------------- Iteration      1(   3)  ---------------------------------------


     EDDAV:  cpu time     51.3514: real time     51.8052
       DOS:  cpu time      0.0208: real time      0.0208
    --------------------------------------------
      LOOP:  cpu time     51.3722: real time     51.8261

 eigenvalue-minimisations  :  7160
 total energy-change (2. order) :-0.7469131E+03  (-0.6890737E+03)
 number of electron    1031.0000000 magnetization 
 augmentation part     1031.0000000 magnetization 

 Free energy of the ion-electron system (eV)
  ---------------------------------------------------
  alpha Z        PSCENC =      3956.67890753
  Ewald energy   TEWEN  =    232069.45290396
  -Hartree energ DENC   =   -389622.47296653
  -exchange      EXHF   =         0.00000000
  -V(xc)+E(xc)   XCENC  =      5530.86990057
  PAW double counting   =    139149.63786687  -136024.40645526
  entropy T*S    EENTRO =        -0.00213965
  eigenvalues    EBANDS =    -21971.87795214
  atomic energy  EATOM  =    166334.35052077
  Solvation  Ediel_sol  =         0.00000000
  ---------------------------------------------------
  free energy    TOTEN  =      -577.76941388 eV

  energy without entropy =     -577.76727424  energy(sigma->0) =     -577.76834406


--------------------------------------------------------------------------------------------------------




--------------------------------------- Iteration      1(   4)  ---------------------------------------


     EDDAV:  cpu time     57.0008: real time     57.4995
       DOS:  cpu time      0.0160: real time      0.0160
    --------------------------------------------
      LOOP:  cpu time     57.0167: real time     57.5155

 eigenvalue-minimisations  :  8152
 total energy-change (2. order) :-0.4111536E+02  (-0.3813353E+02)
 number of electron    1031.0000000 magnetization 
 augmentation part     1031.0000000 magnetization 

 Free energy of the ion-electron system (eV)
  ---------------------------------------------------
  alpha Z        PSCENC =      3956.67890753
  Ewald energy   TEWEN  =    232069.45290396
  -Hartree energ DENC   =   -389622.47296653
  -exchange      EXHF   =         0.00000000
  -V(xc)+E(xc)   XCENC  =      5530.86990057
  PAW double counting   =    139149.63786687  -136024.40645526
  entropy T*S    EENTRO =        -0.00356066
  eigenvalues    EBANDS =    -22012.99188786
  atomic energy  EATOM  =    166334.35052077
  Solvation  Ediel_sol  =         0.00000000
  ---------------------------------------------------
  free energy    TOTEN  =      -618.88477061 eV

  energy without entropy =     -618.88120995  energy(sigma->0) =     -618.88299028


--------------------------------------------------------------------------------------------------------




--------------------------------------- Iteration      1(   5)  ---------------------------------------


     EDDAV:  cpu time     56.8290: real time     57.3119
       DOS:  cpu time      0.0307: real time      0.0308
    CHARGE:  cpu time      0.4894: real time      0.4981
    MIXING:  cpu time      0.0043: real time      0.0044
    --------------------------------------------
      LOOP:  cpu time     57.3535: real time     57.8452

 eigenvalue-minimisations  :  8128
 total energy-change (2. order) :-0.1915483E+01  (-0.1836906E+01)
 number of electron    1031.0001692 magnetization 
 augmentation part      236.5718007 magnetization 

 Broyden mixing:
  rms(total) = 0.13315E+02    rms(broyden)= 0.13315E+02
  rms(prec ) = 0.13503E+02
  weight for this iteration     100.00

 Free energy of the ion-electron system (eV)
  ---------------------------------------------------
  alpha Z        PSCENC =      3956.67890753
  Ewald energy   TEWEN  =    232069.45290396
  -Hartree energ DENC   =   -389622.47296653
  -exchange      EXHF   =         0.00000000
  -V(xc)+E(xc)   XCENC  =      5530.86990057
  PAW double counting   =    139149.63786687  -136024.40645526
  entropy T*S    EENTRO =        -0.00331336
  eigenvalues    EBANDS =    -22014.90761834
  atomic energy  EATOM  =    166334.35052077
  Solvation  Ediel_sol  =         0.00000000
  ---------------------------------------------------
  free energy    TOTEN  =      -620.80025379 eV

  energy without entropy =     -620.79694043  energy(sigma->0) =     -620.79859711


--------------------------------------------------------------------------------------------------------




--------------------------------------- Iteration      1(   6)  ---------------------------------------


    POTLOK:  cpu time      0.0727: real time      0.0757
    SETDIJ:  cpu time      0.0072: real time      0.0073
    EDDIAG:  cpu time      5.6098: real time      5.7570
  RMM-DIIS:  cpu time      9.3868: real time      9.4679
    ORTHCH:  cpu time      1.4872: real time      1.4985
       DOS:  cpu time      0.0037: real time      0.0037
    CHARGE:  cpu time      0.4797: real time      0.4822
    MIXING:  cpu time      0.0040: real time      0.0041
    --------------------------------------------
      LOOP:  cpu time     17.0511: real time     17.2964

 eigenvalue-minimisations  :  6185
 total energy-change (2. order) : 0.3327290E+02  (-0.1464446E+02)
 number of electron    1031.0001721 magnetization 
 augmentation part      245.7193673 magnetization 

 Broyden mixing:
  rms(total) = 0.39296E+01    rms(broyden)= 0.39294E+01
  rms(prec ) = 0.47909E+01
  weight for this iteration     100.00

 eigenvalues of (default mixing * dielectric matrix)
  average eigenvalue GAMMA=   1.2123
  1.2123

 Free energy of the ion-electron system (eV)
  ---------------------------------------------------
  alpha Z        PSCENC =      3956.67890753
  Ewald energy   TEWEN  =    232069.45290396
  -Hartree energ DENC   =   -388875.80922631
  -exchange      EXHF   =         0.00000000
  -V(xc)+E(xc)   XCENC  =      5470.72950340
  PAW double counting   =    157130.19171012  -154165.76413348
  entropy T*S    EENTRO =        -0.00807456
  eigenvalues    EBANDS =    -22507.34946814
  atomic energy  EATOM  =    166334.35052077
  Solvation  Ediel_sol  =         0.00000000
  ---------------------------------------------------
  free energy    TOTEN  =      -587.52735672 eV

  energy without entropy =     -587.51928216  energy(sigma->0) =     -587.52331944


--------------------------------------------------------------------------------------------------------




--------------------------------------- Iteration      1(   7)  ---------------------------------------


    POTLOK:  cpu time      0.0736: real time      0.0744
    SETDIJ:  cpu time      0.0066: real time      0.0066
    EDDIAG:  cpu time      5.4733: real time      5.6552
  RMM-DIIS:  cpu time     12.1864: real time     12.2891
    ORTHCH:  cpu time      1.4810: real time      1.4906
       DOS:  cpu time      0.0061: real time      0.0061
    CHARGE:  cpu time      0.5720: real time      0.5749
    MIXING:  cpu time      0.0024: real time      0.0024
    --------------------------------------------
      LOOP:  cpu time     19.8013: real time     20.0994

 eigenvalue-minimisations  :  7894
 total energy-change (2. order) :-0.2030289E+03  (-0.2239129E+02)
 number of electron    1031.0001792 magnetization 
 augmentation part      254.4633869 magnetization 

 Broyden mixing:
  rms(total) = 0.10494E+02    rms(broyden)= 0.10493E+02
  rms(prec ) = 0.18291E+02
  weight for this iteration     100.00

 eigenvalues of (default mixing * dielectric matrix)
  average eigenvalue GAMMA=   0.7480
  1.2897  0.2063

 Free energy of the ion-electron system (eV)
  ---------------------------------------------------
  alpha Z        PSCENC =      3956.67890753
  Ewald energy   TEWEN  =    232069.45290396
  -Hartree energ DENC   =   -387930.54491512
  -exchange      EXHF   =         0.00000000
  -V(xc)+E(xc)   XCENC  =      5458.19687335
  PAW double counting   =    162853.05997182  -159924.04091017
  entropy T*S    EENTRO =        -0.00281219
  eigenvalues    EBANDS =    -23607.70679245
  atomic energy  EATOM  =    166334.35052077
  Solvation  Ediel_sol  =         0.00000000
  ---------------------------------------------------
  free energy    TOTEN  =      -790.55625250 eV

  energy without entropy =     -790.55344031  energy(sigma->0) =     -790.55484641


--------------------------------------------------------------------------------------------------------




--------------------------------------- Iteration      1(   8)  ---------------------------------------


    POTLOK:  cpu time      0.0810: real time      0.0820
    SETDIJ:  cpu time      0.0066: real time      0.0066
    EDDIAG:  cpu time      5.5699: real time      5.6043
  RMM-DIIS:  cpu time      9.9159: real time     10.0016
    ORTHCH:  cpu time      1.4827: real time      1.4928
       DOS:  cpu time      0.0032: real time      0.0033
    CHARGE:  cpu time      0.4662: real time      0.4686
    MIXING:  cpu time      0.0024: real time      0.0024
    --------------------------------------------
      LOOP:  cpu time     17.5279: real time     17.6616

 eigenvalue-minimisations  :  6515
 total energy-change (2. order) : 0.1671915E+03  (-0.7153661E+01)
 number of electron    1031.0001756 magnetization 
 augmentation part      249.9478198 magnetization 

 Broyden mixing:
  rms(total) = 0.53163E+01    rms(broyden)= 0.53152E+01
  rms(prec ) = 0.11285E+02
  weight for this iteration     100.00

 eigenvalues of (default mixing * dielectric matrix)
  average eigenvalue GAMMA=   0.5465
  1.2928  0.2305  0.1161

 Free energy of the ion-electron system (eV)
  ---------------------------------------------------
  alpha Z        PSCENC =      3956.67890753
  Ewald energy   TEWEN  =    232069.45290396
  -Hartree energ DENC   =   -388657.45985012
  -exchange      EXHF   =         0.00000000
  -V(xc)+E(xc)   XCENC  =      5458.67697289
  PAW double counting   =    164184.05984993  -161249.64277907
  entropy T*S    EENTRO =        -0.00295537
  eigenvalues    EBANDS =    -22719.47831274
  atomic energy  EATOM  =    166334.35052077
  Solvation  Ediel_sol  =         0.00000000
  ---------------------------------------------------
  free energy    TOTEN  =      -623.36474224 eV

  energy without entropy =     -623.36178687  energy(sigma->0) =     -623.36326456


--------------------------------------------------------------------------------------------------------




--------------------------------------- Iteration      1(   9)  ---------------------------------------


    POTLOK:  cpu time      0.0637: real time      0.0672
    SETDIJ:  cpu time      0.0061: real time      0.0062
    EDDIAG:  cpu time      5.7981: real time      5.8329
  RMM-DIIS:  cpu time     10.9547: real time     11.0472
    ORTHCH:  cpu time      1.4829: real time      1.4928
       DOS:  cpu time      0.0032: real time      0.0032
    CHARGE:  cpu time      0.5010: real time      0.5037
    MIXING:  cpu time      0.0025: real time      0.0025
    --------------------------------------------
      LOOP:  cpu time     18.8122: real time     18.9558

 eigenvalue-minimisations  :  7079
 total energy-change (2. order) : 0.4636334E+02  (-0.2250041E+01)
 number of electron    1031.0001763 magnetization 
 augmentation part      248.0223035 magnetization 

 Broyden mixing:
  rms(total) = 0.94071E+00    rms(broyden)= 0.93855E+00
  rms(prec ) = 0.12209E+01
  weight for this iteration     100.00

 eigenvalues of (default mixing * dielectric matrix)
  average eigenvalue GAMMA=   0.5516
  1.2974  0.6068  0.1990  0.1034

 Free energy of the ion-electron system (eV)
  ---------------------------------------------------
  alpha Z        PSCENC =      3956.67890753
  Ewald energy   TEWEN  =    232069.45290396
  -Hartree energ DENC   =   -388828.20358819
  -exchange      EXHF   =         0.00000000
  -V(xc)+E(xc)   XCENC  =      5459.09096171
  PAW double counting   =    164478.80749239  -161541.93797851
  entropy T*S    EENTRO =        -0.00683376
  eigenvalues    EBANDS =    -22505.23379183
  atomic energy  EATOM  =    166334.35052077
  Solvation  Ediel_sol  =         0.00000000
  ---------------------------------------------------
  free energy    TOTEN  =      -577.00140595 eV

  energy without entropy =     -576.99457219  energy(sigma->0) =     -576.99798907


--------------------------------------------------------------------------------------------------------




--------------------------------------- Iteration      1(  10)  ---------------------------------------


    POTLOK:  cpu time      0.0745: real time      0.0754
    SETDIJ:  cpu time      0.0059: real time      0.0059
    EDDIAG:  cpu time      5.7284: real time      5.7631
  RMM-DIIS:  cpu time     12.1032: real time     12.2041
    ORTHCH:  cpu time      1.5181: real time      1.5286
       DOS:  cpu time      0.0040: real time      0.0041
    CHARGE:  cpu time      0.4546: real time      0.4569
    MIXING:  cpu time      0.0025: real time      0.0025
    --------------------------------------------
      LOOP:  cpu time     19.8912: real time     20.0408

 eigenvalue-minimisations  :  7861
 total energy-change (2. order) :-0.4141667E+00  (-0.6270170E+00)
 number of electron    1031.0001754 magnetization 
 augmentation part      248.2236775 magnetization 

 Broyden mixing:
  rms(total) = 0.96105E+00    rms(broyden)= 0.96093E+00
  rms(prec ) = 0.12896E+01
  weight for this iteration     100.00

 eigenvalues of (default mixing * dielectric matrix)
  average eigenvalue GAMMA=   0.5372
  1.2904  0.8027  0.1013  0.1899  0.3017

 Free energy of the ion-electron system (eV)
  ---------------------------------------------------
  alpha Z        PSCENC =      3956.67890753
  Ewald energy   TEWEN  =    232069.45290396
  -Hartree energ DENC   =   -388811.86445476
  -exchange      EXHF   =         0.00000000
  -V(xc)+E(xc)   XCENC  =      5458.48509179
  PAW double counting   =    165014.07243695  -162076.44945276
  entropy T*S    EENTRO =        -0.00750952
  eigenvalues    EBANDS =    -22522.13401660
  atomic energy  EATOM  =    166334.35052077
  Solvation  Ediel_sol  =         0.00000000
  ---------------------------------------------------
  free energy    TOTEN  =      -577.41557265 eV

  energy without entropy =     -577.40806314  energy(sigma->0) =     -577.41181790


--------------------------------------------------------------------------------------------------------




--------------------------------------- Iteration      1(  11)  ---------------------------------------


    POTLOK:  cpu time      0.0638: real time      0.0645
    SETDIJ:  cpu time      0.0061: real time      0.0061
    EDDIAG:  cpu time      5.6467: real time      5.6804
  RMM-DIIS:  cpu time     10.1789: real time     10.2622
    ORTHCH:  cpu time      1.4856: real time      1.4954
       DOS:  cpu time      0.0039: real time      0.0039
    CHARGE:  cpu time      0.4539: real time      0.4562
    MIXING:  cpu time      0.0025: real time      0.0025
    --------------------------------------------
      LOOP:  cpu time     17.8414: real time     17.9713

 eigenvalue-minimisations  :  6678
 total energy-change (2. order) : 0.9824493E+00  (-0.1606951E+00)
 number of electron    1031.0001764 magnetization 
 augmentation part      248.2883768 magnetization 

 Broyden mixing:
  rms(total) = 0.39571E+00    rms(broyden)= 0.39560E+00
  rms(prec ) = 0.45324E+00
  weight for this iteration     100.00

 eigenvalues of (default mixing * dielectric matrix)
  average eigenvalue GAMMA=   0.7199
  1.4244  1.4244  0.9305  0.1007  0.2003  0.2390

 Free energy of the ion-electron system (eV)
  ---------------------------------------------------
  alpha Z        PSCENC =      3956.67890753
  Ewald energy   TEWEN  =    232069.45290396
  -Hartree energ DENC   =   -388812.14830174
  -exchange      EXHF   =         0.00000000
  -V(xc)+E(xc)   XCENC  =      5458.12642618
  PAW double counting   =    165382.80392757  -162444.27571538
  entropy T*S    EENTRO =        -0.00633682
  eigenvalues    EBANDS =    -22521.41545544
  atomic energy  EATOM  =    166334.35052077
  Solvation  Ediel_sol  =         0.00000000
  ---------------------------------------------------
  free energy    TOTEN  =      -576.43312337 eV

  energy without entropy =     -576.42678656  energy(sigma->0) =     -576.42995497


--------------------------------------------------------------------------------------------------------




--------------------------------------- Iteration      1(  12)  ---------------------------------------


    POTLOK:  cpu time      0.0651: real time      0.0658
    SETDIJ:  cpu time      0.0058: real time      0.0059
    EDDIAG:  cpu time      5.6791: real time      5.7164
  RMM-DIIS:  cpu time     11.7991: real time     11.8964
    ORTHCH:  cpu time      1.4849: real time      1.4948
       DOS:  cpu time      0.0032: real time      0.0032
    CHARGE:  cpu time      0.4553: real time      0.4575
    MIXING:  cpu time      0.0028: real time      0.0028
    --------------------------------------------
      LOOP:  cpu time     19.4952: real time     19.6428

 eigenvalue-minimisations  :  7529
 total energy-change (2. order) :-0.2367394E+00  (-0.9117173E-01)
 number of electron    1031.0001760 magnetization 
 augmentation part      248.3619670 magnetization 

 Broyden mixing:
  rms(total) = 0.53014E+00    rms(broyden)= 0.53011E+00
  rms(prec ) = 0.72832E+00
  weight for this iteration     100.00

 eigenvalues of (default mixing * dielectric matrix)
  average eigenvalue GAMMA=   0.6824
  1.5422  1.5422  0.8985  0.1007  0.2663  0.2030  0.2241

 Free energy of the ion-electron system (eV)
  ---------------------------------------------------
  alpha Z        PSCENC =      3956.67890753
  Ewald energy   TEWEN  =    232069.45290396
  -Hartree energ DENC   =   -388868.00319182
  -exchange      EXHF   =         0.00000000
  -V(xc)+E(xc)   XCENC  =      5457.68064005
  PAW double counting   =    165959.26505255  -163017.90140806
  entropy T*S    EENTRO =        -0.00587119
  eigenvalues    EBANDS =    -22468.18741651
  atomic energy  EATOM  =    166334.35052077
  Solvation  Ediel_sol  =         0.00000000
  ---------------------------------------------------
  free energy    TOTEN  =      -576.66986273 eV

  energy without entropy =     -576.66399154  energy(sigma->0) =     -576.66692713


--------------------------------------------------------------------------------------------------------




--------------------------------------- Iteration      1(  13)  ---------------------------------------


    POTLOK:  cpu time      0.0637: real time      0.0654
    SETDIJ:  cpu time      0.0060: real time      0.0060
    EDDIAG:  cpu time      5.6136: real time      5.6458
  RMM-DIIS:  cpu time     11.1338: real time     11.2269
    ORTHCH:  cpu time      1.5024: real time      1.5126
       DOS:  cpu time      0.0064: real time      0.0064
    CHARGE:  cpu time      0.4530: real time      0.4554
    MIXING:  cpu time      0.0027: real time      0.0027
    --------------------------------------------
      LOOP:  cpu time     18.7815: real time     18.9210

 eigenvalue-minimisations  :  7200
 total energy-change (2. order) : 0.3291445E+00  (-0.4085833E-01)
 number of electron    1031.0001759 magnetization 
 augmentation part      248.3480736 magnetization 

 Broyden mixing:
  rms(total) = 0.16996E+00    rms(broyden)= 0.16987E+00
  rms(prec ) = 0.22670E+00
  weight for this iteration     100.00

 eigenvalues of (default mixing * dielectric matrix)
  average eigenvalue GAMMA=   0.7057
  1.8473  1.4315  0.8117  0.8117  0.1007  0.2412  0.2054  0.1963

 Free energy of the ion-electron system (eV)
  ---------------------------------------------------
  alpha Z        PSCENC =      3956.67890753
  Ewald energy   TEWEN  =    232069.45290396
  -Hartree energ DENC   =   -388892.80644076
  -exchange      EXHF   =         0.00000000
  -V(xc)+E(xc)   XCENC  =      5457.68872716
  PAW double counting   =    166130.76383931  -163188.26466654
  entropy T*S    EENTRO =        -0.00635432
  eigenvalues    EBANDS =    -22444.19815537
  atomic energy  EATOM  =    166334.35052077
  Solvation  Ediel_sol  =         0.00000000
  ---------------------------------------------------
  free energy    TOTEN  =      -576.34071827 eV

  energy without entropy =     -576.33436395  energy(sigma->0) =     -576.33754111


--------------------------------------------------------------------------------------------------------




--------------------------------------- Iteration      1(  14)  ---------------------------------------


    POTLOK:  cpu time      0.0634: real time      0.0642
    SETDIJ:  cpu time      0.0063: real time      0.0063
    EDDIAG:  cpu time      5.5961: real time      5.6286
  RMM-DIIS:  cpu time     12.2321: real time     12.3356
    ORTHCH:  cpu time      1.4813: real time      1.4914
       DOS:  cpu time      0.0044: real time      0.0044
    CHARGE:  cpu time      0.5658: real time      0.5686
    MIXING:  cpu time      0.0027: real time      0.0028
    --------------------------------------------
      LOOP:  cpu time     19.9522: real time     20.1019

 eigenvalue-minimisations  :  7939
 total energy-change (2. order) :-0.7640235E-02  (-0.1913545E-01)
 number of electron    1031.0001760 magnetization 
 augmentation part      248.2936789 magnetization 

 Broyden mixing:
  rms(total) = 0.19360E+00    rms(broyden)= 0.19358E+00
  rms(prec ) = 0.24717E+00
  weight for this iteration     100.00

 eigenvalues of (default mixing * dielectric matrix)
  average eigenvalue GAMMA=   0.7253
  2.1553  1.2991  1.0336  1.0336  0.1007  0.2805  0.2364  0.1997  0.1888

 Free energy of the ion-electron system (eV)
  ---------------------------------------------------
  alpha Z        PSCENC =      3956.67890753
  Ewald energy   TEWEN  =    232069.45290396
  -Hartree energ DENC   =   -388930.31308219
  -exchange      EXHF   =         0.00000000
  -V(xc)+E(xc)   XCENC  =      5457.91546251
  PAW double counting   =    166264.71652555  -163320.92822353
  entropy T*S    EENTRO =        -0.00711905
  eigenvalues    EBANDS =    -22408.21425406
  atomic energy  EATOM  =    166334.35052077
  Solvation  Ediel_sol  =         0.00000000
  ---------------------------------------------------
  free energy    TOTEN  =      -576.34835851 eV

  energy without entropy =     -576.34123946  energy(sigma->0) =     -576.34479898


--------------------------------------------------------------------------------------------------------




--------------------------------------- Iteration      1(  15)  ---------------------------------------


    POTLOK:  cpu time      0.0638: real time      0.0645
    SETDIJ:  cpu time      0.0061: real time      0.0061
    EDDIAG:  cpu time      5.5386: real time      5.5701
  RMM-DIIS:  cpu time     10.8827: real time     10.9715
    ORTHCH:  cpu time      1.5637: real time      1.5739
       DOS:  cpu time      0.0033: real time      0.0034
    CHARGE:  cpu time      0.4533: real time      0.4571
    MIXING:  cpu time      0.0034: real time      0.0034
    --------------------------------------------
      LOOP:  cpu time     18.5148: real time     18.6500

 eigenvalue-minimisations  :  7014
 total energy-change (2. order) : 0.4409231E-01  (-0.8216392E-02)
 number of electron    1031.0001759 magnetization 
 augmentation part      248.2370571 magnetization 

 Broyden mixing:
  rms(total) = 0.84745E-01    rms(broyden)= 0.84726E-01
  rms(prec ) = 0.12123E+00
  weight for this iteration     100.00

 eigenvalues of (default mixing * dielectric matrix)
  average eigenvalue GAMMA=   0.7081
  2.1993  1.2281  1.1149  1.1149  0.4345  0.1007  0.2575  0.2431  0.2007  0.1877

 Free energy of the ion-electron system (eV)
  ---------------------------------------------------
  alpha Z        PSCENC =      3956.67890753
  Ewald energy   TEWEN  =    232069.45290396
  -Hartree energ DENC   =   -388970.25761494
  -exchange      EXHF   =         0.00000000
  -V(xc)+E(xc)   XCENC  =      5458.15269376
  PAW double counting   =    166384.84894567  -163439.91955872
  entropy T*S    EENTRO =        -0.00645636
  eigenvalues    EBANDS =    -22369.60460787
  atomic energy  EATOM  =    166334.35052077
  Solvation  Ediel_sol  =         0.00000000
  ---------------------------------------------------
  free energy    TOTEN  =      -576.30426620 eV

  energy without entropy =     -576.29780984  energy(sigma->0) =     -576.30103802


--------------------------------------------------------------------------------------------------------




--------------------------------------- Iteration      1(  16)  ---------------------------------------


    POTLOK:  cpu time      0.0652: real time      0.0659
    SETDIJ:  cpu time      0.0068: real time      0.0069
    EDDIAG:  cpu time      5.5293: real time      5.5602
  RMM-DIIS:  cpu time     12.2352: real time     12.3360
    ORTHCH:  cpu time      1.4800: real time      1.4913
       DOS:  cpu time      0.0043: real time      0.0043
    CHARGE:  cpu time      0.4541: real time      0.4564
    MIXING:  cpu time      0.0039: real time      0.0040
    --------------------------------------------
      LOOP:  cpu time     19.7788: real time     19.9250

 eigenvalue-minimisations  :  7921
 total energy-change (2. order) : 0.3912041E-02  (-0.3761888E-02)
 number of electron    1031.0001759 magnetization 
 augmentation part      248.2295271 magnetization 

 Broyden mixing:
  rms(total) = 0.70501E-01    rms(broyden)= 0.70490E-01
  rms(prec ) = 0.10164E+00
  weight for this iteration     100.00

 eigenvalues of (default mixing * dielectric matrix)
  average eigenvalue GAMMA=   0.7326
  2.2342  1.3886  1.3886  0.9227  0.9227  0.1007  0.2815  0.2416  0.1975  0.1975
  0.1835

 Free energy of the ion-electron system (eV)
  ---------------------------------------------------
  alpha Z        PSCENC =      3956.67890753
  Ewald energy   TEWEN  =    232069.45290396
  -Hartree energ DENC   =   -388983.12164333
  -exchange      EXHF   =         0.00000000
  -V(xc)+E(xc)   XCENC  =      5458.17982302
  PAW double counting   =    166412.73535258  -163467.66461381
  entropy T*S    EENTRO =        -0.00621075
  eigenvalues    EBANDS =    -22356.90539412
  atomic energy  EATOM  =    166334.35052077
  Solvation  Ediel_sol  =         0.00000000
  ---------------------------------------------------
  free energy    TOTEN  =      -576.30035416 eV

  energy without entropy =     -576.29414341  energy(sigma->0) =     -576.29724878


--------------------------------------------------------------------------------------------------------




--------------------------------------- Iteration      1(  17)  ---------------------------------------


    POTLOK:  cpu time      0.0714: real time      0.0721
    SETDIJ:  cpu time      0.0061: real time      0.0061
    EDDIAG:  cpu time      5.5315: real time      5.5637
  RMM-DIIS:  cpu time     11.8010: real time     11.9013
    ORTHCH:  cpu time      1.4996: real time      1.5096
       DOS:  cpu time      0.0038: real time      0.0038
    CHARGE:  cpu time      0.4542: real time      0.4566
    MIXING:  cpu time      0.0032: real time      0.0032
    --------------------------------------------
      LOOP:  cpu time     19.3707: real time     19.5165

 eigenvalue-minimisations  :  7548
 total energy-change (2. order) : 0.7860104E-02  (-0.1558109E-02)
 number of electron    1031.0001759 magnetization 
 augmentation part      248.2313135 magnetization 

 Broyden mixing:
  rms(total) = 0.36756E-01    rms(broyden)= 0.36752E-01
  rms(prec ) = 0.52686E-01
  weight for this iteration     100.00

 eigenvalues of (default mixing * dielectric matrix)
  average eigenvalue GAMMA=   0.7141
  2.2291  1.4469  1.4469  0.9145  0.9145  0.4206  0.1007  0.2796  0.2362  0.2042
  0.1955  0.1808

 Free energy of the ion-electron system (eV)
  ---------------------------------------------------
  alpha Z        PSCENC =      3956.67890753
  Ewald energy   TEWEN  =    232069.45290396
  -Hartree energ DENC   =   -389004.59264938
  -exchange      EXHF   =         0.00000000
  -V(xc)+E(xc)   XCENC  =      5458.17478726
  PAW double counting   =    166444.16488713  -163499.06126485
  entropy T*S    EENTRO =        -0.00625803
  eigenvalues    EBANDS =    -22335.45432843
  atomic energy  EATOM  =    166334.35052077
  Solvation  Ediel_sol  =         0.00000000
  ---------------------------------------------------
  free energy    TOTEN  =      -576.29249405 eV

  energy without entropy =     -576.28623602  energy(sigma->0) =     -576.28936504


--------------------------------------------------------------------------------------------------------




--------------------------------------- Iteration      1(  18)  ---------------------------------------


    POTLOK:  cpu time      0.0627: real time      0.0634
    SETDIJ:  cpu time      0.0060: real time      0.0060
    EDDIAG:  cpu time      5.5416: real time      5.5744
  RMM-DIIS:  cpu time     12.2382: real time     12.3409
    ORTHCH:  cpu time      1.4895: real time      1.4992
       DOS:  cpu time      0.0048: real time      0.0048
    CHARGE:  cpu time      0.4585: real time      0.4608
    MIXING:  cpu time      0.0034: real time      0.0034
    --------------------------------------------
      LOOP:  cpu time     19.8048: real time     19.9530

 eigenvalue-minimisations  :  7821
 total energy-change (2. order) : 0.1526198E-02  (-0.7511551E-03)
 number of electron    1031.0001759 magnetization 
 augmentation part      248.2322177 magnetization 

 Broyden mixing:
  rms(total) = 0.28651E-01    rms(broyden)= 0.28647E-01
  rms(prec ) = 0.43287E-01
  weight for this iteration     100.00

 eigenvalues of (default mixing * dielectric matrix)
  average eigenvalue GAMMA=   0.7640
  2.0818  2.0818  1.1415  1.1415  1.0212  1.0212  0.1007  0.2861  0.2401  0.2401
  0.2002  0.1947  0.1807

 Free energy of the ion-electron system (eV)
  ---------------------------------------------------
  alpha Z        PSCENC =      3956.67890753
  Ewald energy   TEWEN  =    232069.45290396
  -Hartree energ DENC   =   -389012.76986898
  -exchange      EXHF   =         0.00000000
  -V(xc)+E(xc)   XCENC  =      5458.17923652
  PAW double counting   =    166442.94995050  -163497.83269385
  entropy T*S    EENTRO =        -0.00636199
  eigenvalues    EBANDS =    -22327.29356231
  atomic energy  EATOM  =    166334.35052077
  Solvation  Ediel_sol  =         0.00000000
  ---------------------------------------------------
  free energy    TOTEN  =      -576.29096786 eV

  energy without entropy =     -576.28460587  energy(sigma->0) =     -576.28778686


--------------------------------------------------------------------------------------------------------




--------------------------------------- Iteration      1(  19)  ---------------------------------------


    POTLOK:  cpu time      0.0593: real time      0.0629
    SETDIJ:  cpu time      0.0060: real time      0.0061
    EDDIAG:  cpu time      5.5129: real time      5.5461
  RMM-DIIS:  cpu time     11.1684: real time     11.2636
    ORTHCH:  cpu time      1.4940: real time      1.5051
       DOS:  cpu time      0.0035: real time      0.0035
    CHARGE:  cpu time      0.4542: real time      0.4565
    MIXING:  cpu time      0.0034: real time      0.0034
    --------------------------------------------
      LOOP:  cpu time     18.7018: real time     18.8473

 eigenvalue-minimisations  :  7265
 total energy-change (2. order) : 0.1188275E-02  (-0.5334360E-03)
 number of electron    1031.0001759 magnetization 
 augmentation part      248.2355419 magnetization 

 Broyden mixing:
  rms(total) = 0.36251E-01    rms(broyden)= 0.36248E-01
  rms(prec ) = 0.51267E-01
  weight for this iteration     100.00

 eigenvalues of (default mixing * dielectric matrix)
  average eigenvalue GAMMA=   0.7625
  2.2608  2.2608  1.2082  1.2082  1.0194  1.0194  0.1007  0.2987  0.2688  0.2403
  0.2187  0.2018  0.1907  0.1789

 Free energy of the ion-electron system (eV)
  ---------------------------------------------------
  alpha Z        PSCENC =      3956.67890753
  Ewald energy   TEWEN  =    232069.45290396
  -Hartree energ DENC   =   -389033.65781046
  -exchange      EXHF   =         0.00000000
  -V(xc)+E(xc)   XCENC  =      5458.20996726
  PAW double counting   =    166424.76919122  -163479.58524719
  entropy T*S    EENTRO =        -0.00622088
  eigenvalues    EBANDS =    -22306.50199179
  atomic energy  EATOM  =    166334.35052077
  Solvation  Ediel_sol  =         0.00000000
  ---------------------------------------------------
  free energy    TOTEN  =      -576.28977958 eV

  energy without entropy =     -576.28355870  energy(sigma->0) =     -576.28666914


--------------------------------------------------------------------------------------------------------




--------------------------------------- Iteration      1(  20)  ---------------------------------------


    POTLOK:  cpu time      0.0647: real time      0.0654
    SETDIJ:  cpu time      0.0062: real time      0.0063
    EDDIAG:  cpu time      5.5226: real time      5.5562
  RMM-DIIS:  cpu time     11.1376: real time     11.2336
    ORTHCH:  cpu time      1.5082: real time      1.5177
       DOS:  cpu time      0.0081: real time      0.0082
    CHARGE:  cpu time      0.4563: real time      0.4587
    MIXING:  cpu time      0.0043: real time      0.0044
    --------------------------------------------
      LOOP:  cpu time     18.7080: real time     18.8504

 eigenvalue-minimisations  :  7191
 total energy-change (2. order) : 0.1919195E-02  (-0.2963572E-03)
 number of electron    1031.0001759 magnetization 
 augmentation part      248.2343844 magnetization 

 Broyden mixing:
  rms(total) = 0.13078E-01    rms(broyden)= 0.13072E-01
  rms(prec ) = 0.22324E-01
  weight for this iteration     100.00

 eigenvalues of (default mixing * dielectric matrix)
  average eigenvalue GAMMA=   0.7914
  2.4618  2.4618  1.2037  1.2037  1.0774  1.0774  0.7246  0.1007  0.2911  0.2592
  0.2396  0.2012  0.1988  0.1908  0.1798

 Free energy of the ion-electron system (eV)
  ---------------------------------------------------
  alpha Z        PSCENC =      3956.67890753
  Ewald energy   TEWEN  =    232069.45290396
  -Hartree energ DENC   =   -389044.66044707
  -exchange      EXHF   =         0.00000000
  -V(xc)+E(xc)   XCENC  =      5458.22737861
  PAW double counting   =    166413.35177467  -163468.14117385
  entropy T*S    EENTRO =        -0.00622188
  eigenvalues    EBANDS =    -22295.54150312
  atomic energy  EATOM  =    166334.35052077
  Solvation  Ediel_sol  =         0.00000000
  ---------------------------------------------------
  free energy    TOTEN  =      -576.28786039 eV

  energy without entropy =     -576.28163850  energy(sigma->0) =     -576.28474944


--------------------------------------------------------------------------------------------------------




--------------------------------------- Iteration      1(  21)  ---------------------------------------


    POTLOK:  cpu time      0.0624: real time      0.0632
    SETDIJ:  cpu time      0.0059: real time      0.0059
    EDDIAG:  cpu time      5.4458: real time      5.4761
  RMM-DIIS:  cpu time     11.8489: real time     11.9499
    ORTHCH:  cpu time      1.5042: real time      1.5137
       DOS:  cpu time      0.0171: real time      0.0172
    CHARGE:  cpu time      0.4778: real time      0.4801
    MIXING:  cpu time      0.0036: real time      0.0036
    --------------------------------------------
      LOOP:  cpu time     19.3657: real time     19.5097

 eigenvalue-minimisations  :  7629
 total energy-change (2. order) :-0.8692953E-03  (-0.2521993E-03)
 number of electron    1031.0001759 magnetization 
 augmentation part      248.2341519 magnetization 

 Broyden mixing:
  rms(total) = 0.22766E-01    rms(broyden)= 0.22764E-01
  rms(prec ) = 0.30595E-01
  weight for this iteration     100.00

 eigenvalues of (default mixing * dielectric matrix)
  average eigenvalue GAMMA=   0.8049
  2.6724  2.6724  1.2718  1.2718  1.1980  0.9471  0.9471  0.1007  0.2957  0.2545
  0.2545  0.2281  0.2021  0.1949  0.1806  0.1866

 Free energy of the ion-electron system (eV)
  ---------------------------------------------------
  alpha Z        PSCENC =      3956.67890753
  Ewald energy   TEWEN  =    232069.45290396
  -Hartree energ DENC   =   -389059.40996032
  -exchange      EXHF   =         0.00000000
  -V(xc)+E(xc)   XCENC  =      5458.24267590
  PAW double counting   =    166396.59268733  -163451.40382560
  entropy T*S    EENTRO =        -0.00622207
  eigenvalues    EBANDS =    -22280.78641718
  atomic energy  EATOM  =    166334.35052077
  Solvation  Ediel_sol  =         0.00000000
  ---------------------------------------------------
  free energy    TOTEN  =      -576.28872968 eV

  energy without entropy =     -576.28250761  energy(sigma->0) =     -576.28561864


--------------------------------------------------------------------------------------------------------




--------------------------------------- Iteration      1(  22)  ---------------------------------------


    POTLOK:  cpu time      0.0635: real time      0.0644
    SETDIJ:  cpu time      0.0061: real time      0.0062
    EDDIAG:  cpu time      5.4863: real time      5.5194
  RMM-DIIS:  cpu time     11.2727: real time     11.3669
    ORTHCH:  cpu time      1.4790: real time      1.4903
       DOS:  cpu time      0.0047: real time      0.0048
    CHARGE:  cpu time      0.4559: real time      0.4581
    MIXING:  cpu time      0.0039: real time      0.0039
    --------------------------------------------
      LOOP:  cpu time     18.7722: real time     18.9139

 eigenvalue-minimisations  :  7250
 total energy-change (2. order) :-0.2732917E-03  (-0.1612369E-03)
 number of electron    1031.0001759 magnetization 
 augmentation part      248.2334741 magnetization 

 Broyden mixing:
  rms(total) = 0.93078E-02    rms(broyden)= 0.93051E-02
  rms(prec ) = 0.13738E-01
  weight for this iteration     100.00

 eigenvalues of (default mixing * dielectric matrix)
  average eigenvalue GAMMA=   0.8201
  3.1653  2.4676  1.3048  1.3048  1.1643  1.1200  0.8061  0.7259  0.1007  0.2917
  0.2693  0.2378  0.2201  0.2011  0.1964  0.1792  0.1871

 Free energy of the ion-electron system (eV)
  ---------------------------------------------------
  alpha Z        PSCENC =      3956.67890753
  Ewald energy   TEWEN  =    232069.45290396
  -Hartree energ DENC   =   -389071.81747471
  -exchange      EXHF   =         0.00000000
  -V(xc)+E(xc)   XCENC  =      5458.25470319
  PAW double counting   =    166381.96201293  -163436.80050296
  entropy T*S    EENTRO =        -0.00614241
  eigenvalues    EBANDS =    -22268.36393127
  atomic energy  EATOM  =    166334.35052077
  Solvation  Ediel_sol  =         0.00000000
  ---------------------------------------------------
  free energy    TOTEN  =      -576.28900297 eV

  energy without entropy =     -576.28286057  energy(sigma->0) =     -576.28593177


--------------------------------------------------------------------------------------------------------




--------------------------------------- Iteration      1(  23)  ---------------------------------------


    POTLOK:  cpu time      0.0614: real time      0.0621
    SETDIJ:  cpu time      0.0212: real time      0.0213
    EDDIAG:  cpu time      5.4086: real time      5.4395
  RMM-DIIS:  cpu time     11.0717: real time     11.1638
    ORTHCH:  cpu time      1.4779: real time      1.4874
       DOS:  cpu time      0.0049: real time      0.0049
    CHARGE:  cpu time      0.4538: real time      0.4562
    MIXING:  cpu time      0.0041: real time      0.0041
    --------------------------------------------
      LOOP:  cpu time     18.5035: real time     18.6392

 eigenvalue-minimisations  :  7032
 total energy-change (2. order) :-0.1151564E-02  (-0.8649985E-04)
 number of electron    1031.0001759 magnetization 
 augmentation part      248.2332556 magnetization 

 Broyden mixing:
  rms(total) = 0.13371E-01    rms(broyden)= 0.13370E-01
  rms(prec ) = 0.18539E-01
  weight for this iteration     100.00

 eigenvalues of (default mixing * dielectric matrix)
  average eigenvalue GAMMA=   0.8606
  3.8309  2.3594  1.7331  1.2701  1.1918  1.1918  0.9066  0.9066  0.1007  0.2932
  0.2708  0.2410  0.2304  0.2065  0.1967  0.1967  0.1794  0.1845

 Free energy of the ion-electron system (eV)
  ---------------------------------------------------
  alpha Z        PSCENC =      3956.67890753
  Ewald energy   TEWEN  =    232069.45290396
  -Hartree energ DENC   =   -389077.94270475
  -exchange      EXHF   =         0.00000000
  -V(xc)+E(xc)   XCENC  =      5458.25705920
  PAW double counting   =    166373.85944093  -163428.72433364
  entropy T*S    EENTRO =        -0.00613250
  eigenvalues    EBANDS =    -22262.21581604
  atomic energy  EATOM  =    166334.35052077
  Solvation  Ediel_sol  =         0.00000000
  ---------------------------------------------------
  free energy    TOTEN  =      -576.29015454 eV

  energy without entropy =     -576.28402204  energy(sigma->0) =     -576.28708829


--------------------------------------------------------------------------------------------------------




--------------------------------------- Iteration      1(  24)  ---------------------------------------


    POTLOK:  cpu time      0.0717: real time      0.0725
    SETDIJ:  cpu time      0.0064: real time      0.0065
    EDDIAG:  cpu time      5.4065: real time      5.4381
  RMM-DIIS:  cpu time      9.5530: real time      9.6341
    ORTHCH:  cpu time      1.4973: real time      1.5075
       DOS:  cpu time      0.0038: real time      0.0038
    CHARGE:  cpu time      0.4565: real time      0.4587
    MIXING:  cpu time      0.0041: real time      0.0041
    --------------------------------------------
      LOOP:  cpu time     16.9994: real time     17.1254

 eigenvalue-minimisations  :  6094
 total energy-change (2. order) :-0.1058081E-02  (-0.4733686E-04)
 number of electron    1031.0001759 magnetization 
 augmentation part      248.2339077 magnetization 

 Broyden mixing:
  rms(total) = 0.52990E-02    rms(broyden)= 0.52976E-02
  rms(prec ) = 0.74971E-02
  weight for this iteration     100.00

 eigenvalues of (default mixing * dielectric matrix)
  average eigenvalue GAMMA=   0.8690
  4.2035  2.3810  1.8928  1.2037  1.2037  1.2523  0.9208  0.9208  0.4484  0.1007
  0.2933  0.2685  0.2369  0.2315  0.2004  0.2004  0.1902  0.1796  0.1826

 Free energy of the ion-electron system (eV)
  ---------------------------------------------------
  alpha Z        PSCENC =      3956.67890753
  Ewald energy   TEWEN  =    232069.45290396
  -Hartree energ DENC   =   -389083.34506843
  -exchange      EXHF   =         0.00000000
  -V(xc)+E(xc)   XCENC  =      5458.25612740
  PAW double counting   =    166366.16234126  -163421.06200947
  entropy T*S    EENTRO =        -0.00608410
  eigenvalues    EBANDS =    -22256.77885152
  atomic energy  EATOM  =    166334.35052077
  Solvation  Ediel_sol  =         0.00000000
  ---------------------------------------------------
  free energy    TOTEN  =      -576.29121262 eV

  energy without entropy =     -576.28512852  energy(sigma->0) =     -576.28817057


--------------------------------------------------------------------------------------------------------




--------------------------------------- Iteration      1(  25)  ---------------------------------------


    POTLOK:  cpu time      0.0619: real time      0.0632
    SETDIJ:  cpu time      0.0059: real time      0.0059
    EDDIAG:  cpu time      5.4003: real time      5.4316
  RMM-DIIS:  cpu time      9.5935: real time      9.6732
    ORTHCH:  cpu time      1.5173: real time      1.5271
       DOS:  cpu time      0.0086: real time      0.0087
    CHARGE:  cpu time      0.5125: real time      0.5150
    MIXING:  cpu time      0.0051: real time      0.0052
    --------------------------------------------
      LOOP:  cpu time     17.1051: real time     17.2298

 eigenvalue-minimisations  :  6001
 total energy-change (2. order) :-0.6895604E-03  (-0.2258563E-04)
 number of electron    1031.0001759 magnetization 
 augmentation part      248.2342579 magnetization 

 Broyden mixing:
  rms(total) = 0.51893E-02    rms(broyden)= 0.51886E-02
  rms(prec ) = 0.70333E-02
  weight for this iteration     100.00

 eigenvalues of (default mixing * dielectric matrix)
  average eigenvalue GAMMA=   0.9309
  5.1253  2.5841  1.9670  1.2007  1.2007  1.2005  1.2005  0.9037  0.9037  0.1007
  0.2938  0.2740  0.2534  0.2416  0.2227  0.2017  0.1963  0.1888  0.1786  0.1807

 Free energy of the ion-electron system (eV)
  ---------------------------------------------------
  alpha Z        PSCENC =      3956.67890753
  Ewald energy   TEWEN  =    232069.45290396
  -Hartree energ DENC   =   -389085.15896192
  -exchange      EXHF   =         0.00000000
  -V(xc)+E(xc)   XCENC  =      5458.25301922
  PAW double counting   =    166363.59277292  -163418.51600500
  entropy T*S    EENTRO =        -0.00610683
  eigenvalues    EBANDS =    -22254.93895282
  atomic energy  EATOM  =    166334.35052077
  Solvation  Ediel_sol  =         0.00000000
  ---------------------------------------------------
  free energy    TOTEN  =      -576.29190218 eV

  energy without entropy =     -576.28579535  energy(sigma->0) =     -576.28884876


--------------------------------------------------------------------------------------------------------




--------------------------------------- Iteration      1(  26)  ---------------------------------------


    POTLOK:  cpu time      0.0625: real time      0.0633
    SETDIJ:  cpu time      0.0059: real time      0.0060
    EDDIAG:  cpu time      5.3824: real time      5.4148
  RMM-DIIS:  cpu time      8.4314: real time      8.5020
    ORTHCH:  cpu time      1.5302: real time      1.5406
       DOS:  cpu time      0.0037: real time      0.0037
    CHARGE:  cpu time      0.4751: real time      0.4776
    MIXING:  cpu time      0.0045: real time      0.0046
    --------------------------------------------
      LOOP:  cpu time     15.8959: real time     16.0125

 eigenvalue-minimisations  :  5337
 total energy-change (2. order) :-0.1122188E-02  (-0.1284115E-04)
 number of electron    1031.0001759 magnetization 
 augmentation part      248.2352824 magnetization 

 Broyden mixing:
  rms(total) = 0.35337E-02    rms(broyden)= 0.35333E-02
  rms(prec ) = 0.45666E-02
  weight for this iteration     100.00

 eigenvalues of (default mixing * dielectric matrix)
  average eigenvalue GAMMA=   0.9267
  5.4031  2.6507  2.0002  1.2633  1.2633  1.1817  1.1817  0.9122  0.9122  0.3743
  0.1007  0.2942  0.2661  0.2547  0.2362  0.2205  0.2010  0.1975  0.1887  0.1804
  0.1782

 Free energy of the ion-electron system (eV)
  ---------------------------------------------------
  alpha Z        PSCENC =      3956.67890753
  Ewald energy   TEWEN  =    232069.45290396
  -Hartree energ DENC   =   -389087.46193522
  -exchange      EXHF   =         0.00000000
  -V(xc)+E(xc)   XCENC  =      5458.24724093
  PAW double counting   =    166360.52057411  -163415.48135125
  entropy T*S    EENTRO =        -0.00610749
  eigenvalues    EBANDS =    -22252.59377770
  atomic energy  EATOM  =    166334.35052077
  Solvation  Ediel_sol  =         0.00000000
  ---------------------------------------------------
  free energy    TOTEN  =      -576.29302436 eV

  energy without entropy =     -576.28691687  energy(sigma->0) =     -576.28997062


--------------------------------------------------------------------------------------------------------




--------------------------------------- Iteration      1(  27)  ---------------------------------------


    POTLOK:  cpu time      0.0644: real time      0.0653
    SETDIJ:  cpu time      0.0065: real time      0.0065
    EDDIAG:  cpu time      5.4786: real time      5.5126
  RMM-DIIS:  cpu time      7.7207: real time      7.7827
    ORTHCH:  cpu time      1.5754: real time      1.5865
       DOS:  cpu time      0.0036: real time      0.0037
    CHARGE:  cpu time      0.4669: real time      0.4693
    MIXING:  cpu time      0.0048: real time      0.0049
    --------------------------------------------
      LOOP:  cpu time     15.3209: real time     15.4314

 eigenvalue-minimisations  :  4854
 total energy-change (2. order) :-0.3041535E-03  (-0.5854733E-05)
 number of electron    1031.0001759 magnetization 
 augmentation part      248.2350000 magnetization 

 Broyden mixing:
  rms(total) = 0.23709E-02    rms(broyden)= 0.23706E-02
  rms(prec ) = 0.30767E-02
  weight for this iteration     100.00

 eigenvalues of (default mixing * dielectric matrix)
  average eigenvalue GAMMA=   0.9708
  5.7396  2.8599  2.1502  1.4432  1.3032  1.3032  1.1079  1.1079  0.8865  0.8865
  0.1007  0.2945  0.2791  0.2655  0.2390  0.2313  0.2148  0.2012  0.1969  0.1883
  0.1804  0.1782

 Free energy of the ion-electron system (eV)
  ---------------------------------------------------
  alpha Z        PSCENC =      3956.67890753
  Ewald energy   TEWEN  =    232069.45290396
  -Hartree energ DENC   =   -389087.99535496
  -exchange      EXHF   =         0.00000000
  -V(xc)+E(xc)   XCENC  =      5458.24827022
  PAW double counting   =    166360.67714125  -163415.63629805
  entropy T*S    EENTRO =        -0.00609804
  eigenvalues    EBANDS =    -22252.06332120
  atomic energy  EATOM  =    166334.35052077
  Solvation  Ediel_sol  =         0.00000000
  ---------------------------------------------------
  free energy    TOTEN  =      -576.29332852 eV

  energy without entropy =     -576.28723048  energy(sigma->0) =     -576.29027950


--------------------------------------------------------------------------------------------------------




--------------------------------------- Iteration      1(  28)  ---------------------------------------


    POTLOK:  cpu time      0.0621: real time      0.0669
    SETDIJ:  cpu time      0.0061: real time      0.0062
    EDDIAG:  cpu time      5.4915: real time      5.5233
  RMM-DIIS:  cpu time      7.0311: real time      7.0893
    ORTHCH:  cpu time      1.5356: real time      1.5464
       DOS:  cpu time      0.0055: real time      0.0055
    CHARGE:  cpu time      0.4679: real time      0.4706
    MIXING:  cpu time      0.0049: real time      0.0050
    --------------------------------------------
      LOOP:  cpu time     14.6047: real time     14.7131

 eigenvalue-minimisations  :  4400
 total energy-change (2. order) :-0.5098519E-03  (-0.5007553E-05)
 number of electron    1031.0001759 magnetization 
 augmentation part      248.2335626 magnetization 

 Broyden mixing:
  rms(total) = 0.20233E-02    rms(broyden)= 0.20231E-02
  rms(prec ) = 0.26289E-02
  weight for this iteration     100.00

 eigenvalues of (default mixing * dielectric matrix)
  average eigenvalue GAMMA=   0.9712
  5.9721  3.0290  2.2466  1.5779  1.2800  1.2800  1.1504  1.1504  0.8960  0.8960
  0.1007  0.3155  0.2934  0.2669  0.2615  0.2385  0.2262  0.2128  0.2015  0.1963
  0.1884  0.1803  0.1780

 Free energy of the ion-electron system (eV)
  ---------------------------------------------------
  alpha Z        PSCENC =      3956.67890753
  Ewald energy   TEWEN  =    232069.45290396
  -Hartree energ DENC   =   -389088.64793301
  -exchange      EXHF   =         0.00000000
  -V(xc)+E(xc)   XCENC  =      5458.25371075
  PAW double counting   =    166362.54830661  -163417.48532431
  entropy T*S    EENTRO =        -0.00609880
  eigenvalues    EBANDS =    -22251.43883186
  atomic energy  EATOM  =    166334.35052077
  Solvation  Ediel_sol  =         0.00000000
  ---------------------------------------------------
  free energy    TOTEN  =      -576.29383837 eV

  energy without entropy =     -576.28773957  energy(sigma->0) =     -576.29078897


--------------------------------------------------------------------------------------------------------




--------------------------------------- Iteration      1(  29)  ---------------------------------------


    POTLOK:  cpu time      0.0769: real time      0.0777
    SETDIJ:  cpu time      0.0066: real time      0.0066
    EDDIAG:  cpu time      5.7074: real time      5.7423
  RMM-DIIS:  cpu time      6.4385: real time      6.4922
    ORTHCH:  cpu time      1.5141: real time      1.5241
       DOS:  cpu time      0.0037: real time      0.0037
    CHARGE:  cpu time      0.4776: real time      0.4801
    MIXING:  cpu time      0.0053: real time      0.0055
    --------------------------------------------
      LOOP:  cpu time     14.2300: real time     14.3322

 eigenvalue-minimisations  :  3992
 total energy-change (2. order) :-0.1637380E-03  (-0.2335198E-05)
 number of electron    1031.0001759 magnetization 
 augmentation part      248.2333312 magnetization 

 Broyden mixing:
  rms(total) = 0.89650E-03    rms(broyden)= 0.89627E-03
  rms(prec ) = 0.11640E-02
  weight for this iteration     100.00

 eigenvalues of (default mixing * dielectric matrix)
  average eigenvalue GAMMA=   0.9998
  6.3489  3.2481  2.3354  1.7690  1.4013  1.2197  1.2197  0.9747  0.9747  0.8510
  0.8510  0.1007  0.2947  0.2859  0.2672  0.2400  0.2400  0.2221  0.2067  0.2012
  0.1969  0.1883  0.1782  0.1803

 Free energy of the ion-electron system (eV)
  ---------------------------------------------------
  alpha Z        PSCENC =      3956.67890753
  Ewald energy   TEWEN  =    232069.45290396
  -Hartree energ DENC   =   -389088.80028474
  -exchange      EXHF   =         0.00000000
  -V(xc)+E(xc)   XCENC  =      5458.25454392
  PAW double counting   =    166363.63434192  -163418.56547418
  entropy T*S    EENTRO =        -0.00609675
  eigenvalues    EBANDS =    -22251.29336452
  atomic energy  EATOM  =    166334.35052077
  Solvation  Ediel_sol  =         0.00000000
  ---------------------------------------------------
  free energy    TOTEN  =      -576.29400211 eV

  energy without entropy =     -576.28790536  energy(sigma->0) =     -576.29095373


--------------------------------------------------------------------------------------------------------




--------------------------------------- Iteration      1(  30)  ---------------------------------------


    POTLOK:  cpu time      0.0661: real time      0.0669
    SETDIJ:  cpu time      0.0064: real time      0.0065
    EDDIAG:  cpu time      5.6483: real time      5.6810
  RMM-DIIS:  cpu time      6.3801: real time      6.4330
    ORTHCH:  cpu time      1.4930: real time      1.5031
       DOS:  cpu time      0.0036: real time      0.0036
    CHARGE:  cpu time      0.4796: real time      0.4818
    MIXING:  cpu time      0.0064: real time      0.0064
    --------------------------------------------
      LOOP:  cpu time     14.0835: real time     14.1823

 eigenvalue-minimisations  :  3943
 total energy-change (2. order) :-0.1301359E-03  (-0.1706821E-05)
 number of electron    1031.0001759 magnetization 
 augmentation part      248.2335438 magnetization 

 Broyden mixing:
  rms(total) = 0.11333E-02    rms(broyden)= 0.11332E-02
  rms(prec ) = 0.15399E-02
  weight for this iteration     100.00

 eigenvalues of (default mixing * dielectric matrix)
  average eigenvalue GAMMA=   1.0021
  6.6158  3.3898  2.3999  1.8531  1.4421  1.2619  1.2619  1.0261  1.0261  0.8725
  0.8725  0.1007  0.2929  0.2929  0.2653  0.2494  0.2423  0.2288  0.2185  0.1781
  0.1803  0.1884  0.2018  0.1983  0.1944

 Free energy of the ion-electron system (eV)
  ---------------------------------------------------
  alpha Z        PSCENC =      3956.67890753
  Ewald energy   TEWEN  =    232069.45290396
  -Hartree energ DENC   =   -389088.78073693
  -exchange      EXHF   =         0.00000000
  -V(xc)+E(xc)   XCENC  =      5458.25269562
  PAW double counting   =    166365.11854344  -163420.05013006
  entropy T*S    EENTRO =        -0.00609898
  eigenvalues    EBANDS =    -22251.31073759
  atomic energy  EATOM  =    166334.35052077
  Solvation  Ediel_sol  =         0.00000000
  ---------------------------------------------------
  free energy    TOTEN  =      -576.29413224 eV

  energy without entropy =     -576.28803326  energy(sigma->0) =     -576.29108275


--------------------------------------------------------------------------------------------------------




--------------------------------------- Iteration      1(  31)  ---------------------------------------


    POTLOK:  cpu time      0.0670: real time      0.0678
    SETDIJ:  cpu time      0.0065: real time      0.0066
    EDDIAG:  cpu time      5.6112: real time      5.6439
  RMM-DIIS:  cpu time      6.0112: real time      6.0628
    ORTHCH:  cpu time      1.4850: real time      1.4948
       DOS:  cpu time      0.0072: real time      0.0073
    CHARGE:  cpu time      0.4573: real time      0.4597
    MIXING:  cpu time      0.0056: real time      0.0056
    --------------------------------------------
      LOOP:  cpu time     13.6509: real time     13.7485

 eigenvalue-minimisations  :  3569
 total energy-change (2. order) :-0.4732315E-04  (-0.8767068E-06)
 number of electron    1031.0001759 magnetization 
 augmentation part      248.2337777 magnetization 

 Broyden mixing:
  rms(total) = 0.38403E-03    rms(broyden)= 0.38386E-03
  rms(prec ) = 0.51541E-03
  weight for this iteration     100.00

 eigenvalues of (default mixing * dielectric matrix)
  average eigenvalue GAMMA=   1.0035
  6.7089  3.5058  2.4351  1.8696  1.4651  1.3113  1.3113  1.0486  1.0486  0.8803
  0.8803  0.6106  0.1007  0.2973  0.2887  0.2697  0.2503  0.2392  0.2257  0.2120
  0.2012  0.1967  0.1781  0.1803  0.1890  0.1873

 Free energy of the ion-electron system (eV)
  ---------------------------------------------------
  alpha Z        PSCENC =      3956.67890753
  Ewald energy   TEWEN  =    232069.45290396
  -Hartree energ DENC   =   -389088.76282339
  -exchange      EXHF   =         0.00000000
  -V(xc)+E(xc)   XCENC  =      5458.25158824
  PAW double counting   =    166365.85401354  -163420.78611577
  entropy T*S    EENTRO =        -0.00610158
  eigenvalues    EBANDS =    -22251.32707285
  atomic energy  EATOM  =    166334.35052077
  Solvation  Ediel_sol  =         0.00000000
  ---------------------------------------------------
  free energy    TOTEN  =      -576.29417957 eV

  energy without entropy =     -576.28807799  energy(sigma->0) =     -576.29112878


--------------------------------------------------------------------------------------------------------




--------------------------------------- Iteration      1(  32)  ---------------------------------------


    POTLOK:  cpu time      0.0638: real time      0.0645
    SETDIJ:  cpu time      0.0060: real time      0.0060
    EDDIAG:  cpu time      5.5757: real time      5.6083
  RMM-DIIS:  cpu time      5.0455: real time      5.0879
    ORTHCH:  cpu time      1.4833: real time      1.4940
       DOS:  cpu time      0.0040: real time      0.0040
    CHARGE:  cpu time      0.4585: real time      0.4610
    MIXING:  cpu time      0.0058: real time      0.0058
    --------------------------------------------
      LOOP:  cpu time     12.6425: real time     12.7315

 eigenvalue-minimisations  :  2499
 total energy-change (2. order) :-0.1885806E-04  (-0.3806673E-06)
 number of electron    1031.0001759 magnetization 
 augmentation part      248.2338200 magnetization 

 Broyden mixing:
  rms(total) = 0.43347E-03    rms(broyden)= 0.43343E-03
  rms(prec ) = 0.56923E-03
  weight for this iteration     100.00

 eigenvalues of (default mixing * dielectric matrix)
  average eigenvalue GAMMA=   1.0317
  6.8958  3.8340  2.5505  2.0496  1.6528  1.3861  1.2078  1.2078  1.0385  1.0385
  0.8691  0.8691  0.1007  0.2978  0.2906  0.2698  0.2577  0.2424  0.2344  0.2249
  0.2094  0.2017  0.1966  0.1885  0.1782  0.1803  0.1835

 Free energy of the ion-electron system (eV)
  ---------------------------------------------------
  alpha Z        PSCENC =      3956.67890753
  Ewald energy   TEWEN  =    232069.45290396
  -Hartree energ DENC   =   -389088.78148981
  -exchange      EXHF   =         0.00000000
  -V(xc)+E(xc)   XCENC  =      5458.25155785
  PAW double counting   =    166366.03865168  -163420.96932986
  entropy T*S    EENTRO =        -0.00610086
  eigenvalues    EBANDS =    -22251.30981968
  atomic energy  EATOM  =    166334.35052077
  Solvation  Ediel_sol  =         0.00000000
  ---------------------------------------------------
  free energy    TOTEN  =      -576.29419843 eV

  energy without entropy =     -576.28809757  energy(sigma->0) =     -576.29114800


--------------------------------------------------------------------------------------------------------




--------------------------------------- Iteration      1(  33)  ---------------------------------------


    POTLOK:  cpu time      0.0649: real time      0.0657
    SETDIJ:  cpu time      0.0059: real time      0.0059
    EDDIAG:  cpu time      5.5654: real time      5.6012
  RMM-DIIS:  cpu time      5.0143: real time      5.0585
    ORTHCH:  cpu time      1.5087: real time      1.5184
       DOS:  cpu time      0.0035: real time      0.0035
    CHARGE:  cpu time      0.4713: real time      0.4736
    MIXING:  cpu time      0.0062: real time      0.0062
    --------------------------------------------
      LOOP:  cpu time     12.6401: real time     12.7331

 eigenvalue-minimisations  :  2239
 total energy-change (2. order) :-0.1883911E-04  (-0.5728751E-06)
 number of electron    1031.0001759 magnetization 
 augmentation part      248.2338435 magnetization 

 Broyden mixing:
  rms(total) = 0.20010E-03    rms(broyden)= 0.20005E-03
  rms(prec ) = 0.27076E-03
  weight for this iteration     100.00

 eigenvalues of (default mixing * dielectric matrix)
  average eigenvalue GAMMA=   1.0204
  6.9723  3.9054  2.6056  2.1583  1.6559  1.4465  1.2058  1.2058  1.0254  1.0254
  0.8692  0.8692  0.3852  0.1007  0.2960  0.2916  0.2699  0.2555  0.2361  0.2361
  0.2191  0.2089  0.2011  0.1969  0.1884  0.1781  0.1803  0.1831

 Free energy of the ion-electron system (eV)
  ---------------------------------------------------
  alpha Z        PSCENC =      3956.67890753
  Ewald energy   TEWEN  =    232069.45290396
  -Hartree energ DENC   =   -389088.82920606
  -exchange      EXHF   =         0.00000000
  -V(xc)+E(xc)   XCENC  =      5458.25173564
  PAW double counting   =    166366.20061365  -163421.12834793
  entropy T*S    EENTRO =        -0.00610050
  eigenvalues    EBANDS =    -22251.26524432
  atomic energy  EATOM  =    166334.35052077
  Solvation  Ediel_sol  =         0.00000000
  ---------------------------------------------------
  free energy    TOTEN  =      -576.29421726 eV

  energy without entropy =     -576.28811676  energy(sigma->0) =     -576.29116701


--------------------------------------------------------------------------------------------------------




--------------------------------------- Iteration      1(  34)  ---------------------------------------


    POTLOK:  cpu time      0.0704: real time      0.0714
    SETDIJ:  cpu time      0.0059: real time      0.0060
    EDDIAG:  cpu time      5.5040: real time      5.5353
  RMM-DIIS:  cpu time      4.3648: real time      4.4007
    ORTHCH:  cpu time      1.5222: real time      1.5322
       DOS:  cpu time      0.0042: real time      0.0042
    --------------------------------------------
      LOOP:  cpu time     11.4716: real time     11.5497

 eigenvalue-minimisations  :  1495
 total energy-change (2. order) :-0.2081651E-05  (-0.1543553E-06)
 number of electron    1031.0001759 magnetization 
 augmentation part      248.2338435 magnetization 

 Free energy of the ion-electron system (eV)
  ---------------------------------------------------
  alpha Z        PSCENC =      3956.67890753
  Ewald energy   TEWEN  =    232069.45290396
  -Hartree energ DENC   =   -389088.84538124
  -exchange      EXHF   =         0.00000000
  -V(xc)+E(xc)   XCENC  =      5458.25180794
  PAW double counting   =    166366.16657349  -163421.09372428
  entropy T*S    EENTRO =        -0.00610057
  eigenvalues    EBANDS =    -22251.24972694
  atomic energy  EATOM  =    166334.35052077
  Solvation  Ediel_sol  =         0.00000000
  ---------------------------------------------------
  free energy    TOTEN  =      -576.29421935 eV

  energy without entropy =     -576.28811878  energy(sigma->0) =     -576.29116906


--------------------------------------------------------------------------------------------------------




 average (electrostatic) potential at core
  the test charge radii are     0.9685  0.7089  0.5201
  (the norm of the test charge is              1.0000)
       1-110.9641       2-110.9639       3-110.9687       4-110.9786       5-110.9641
       6-110.9699       7-110.9786       8-110.9687       9-110.9656      10-110.9708
      11-110.9741      12-110.9742      13-110.9734      14-110.9707      15-110.9722
      16-110.9721      17-111.4618      18-111.4618      19-111.4730      20-111.4809
      21-111.4644      22-111.4644      23-111.4730      24-111.4759      25-111.4763
      26-111.4708      27-111.4566      28-111.4625      29-111.4708      30-111.4763
      31-111.4737      32-111.4624      33-111.5263      34-111.5610      35-111.5257
      36-111.5064      37-111.5263      38-111.5183      39-111.5064      40-111.5257
      41-111.5233      42-111.4435      43-111.5269      44-111.5269      45-111.5277
      46-111.4435      47-111.5408      48-111.5408      49-111.0651      50-111.0651
      51-111.0390      52-111.0659      53-111.0711      54-111.0710      55-111.0390
      56-111.0435      57-111.0477      58-111.1705      59-111.0460      60-111.0367
      61-111.1700      62-111.0477      63-111.0123      64-111.0367      65 -64.7784
      66 -34.6659      67 -34.6666
 
 
 
 E-fermi :   4.9596     XC(G=0):  -8.1374     alpha+bet :-10.8737

 Fermi energy:         4.9596389008

 k-point     1 :       0.0000    0.0000    0.0000
  band No.  band energies     occupation 
      1     -68.3111      2.00000
      2     -68.2647      2.00000
      3     -68.2558      2.00000
      4     -68.2528      2.00000
      5     -68.2441      2.00000
      6     -68.2397      2.00000
      7     -68.2343      2.00000
      8     -68.2009      2.00000
      9     -68.1940      2.00000
     10     -68.1877      2.00000
     11     -68.1860      2.00000
     12     -68.1853      2.00000
     13     -68.1844      2.00000
     14     -68.1768      2.00000
     15     -68.1737      2.00000
     16     -68.1566      2.00000
     17     -68.1543      2.00000
     18     -68.1515      2.00000
     19     -68.1485      2.00000
     20     -68.1470      2.00000
     21     -68.1438      2.00000
     22     -68.1244      2.00000
     23     -68.1241      2.00000
     24     -68.1175      2.00000
     25     -68.1149      2.00000
     26     -68.1145      2.00000
     27     -68.1095      2.00000
     28     -68.1081      2.00000
     29     -68.1076      2.00000
     30     -68.1065      2.00000
     31     -68.0988      2.00000
     32     -68.0948      2.00000
     33     -67.8611      2.00000
     34     -67.8259      2.00000
     35     -67.7911      2.00000
     36     -67.7652      2.00000
     37     -67.7577      2.00000
     38     -67.7517      2.00000
     39     -67.7434      2.00000
     40     -67.7266      2.00000
     41     -67.7226      2.00000
     42     -67.7225      2.00000
     43     -67.7078      2.00000
     44     -67.7030      2.00000
     45     -67.7025      2.00000
     46     -67.7008      2.00000
     47     -67.6983      2.00000
     48     -67.6980      2.00000
     49     -67.6861      2.00000
     50     -67.6665      2.00000
     51     -67.6638      2.00000
     52     -67.6621      2.00000
     53     -67.6616      2.00000
     54     -67.6608      2.00000
     55     -67.6588      2.00000
     56     -67.6212      2.00000
     57     -67.6188      2.00000
     58     -67.6186      2.00000
     59     -67.6164      2.00000
     60     -67.6163      2.00000
     61     -67.6159      2.00000
     62     -67.6134      2.00000
     63     -67.6131      2.00000
     64     -67.6106      2.00000
     65     -38.6703      2.00000
     66     -38.6678      2.00000
     67     -38.6626      2.00000
     68     -38.6567      2.00000
     69     -38.5970      2.00000
     70     -38.5940      2.00000
     71     -38.5906      2.00000
     72     -38.5545      2.00000
     73     -38.5471      2.00000
     74     -38.5461      2.00000
     75     -38.5417      2.00000
     76     -38.5371      2.00000
     77     -38.5340      2.00000
     78     -38.5332      2.00000
     79     -38.5302      2.00000
     80     -38.5300      2.00000
     81     -38.5267      2.00000
     82     -38.5251      2.00000
     83     -38.5157      2.00000
     84     -38.5041      2.00000
     85     -38.5033      2.00000
     86     -38.4928      2.00000
     87     -38.4912      2.00000
     88     -38.4904      2.00000
     89     -38.4707      2.00000
     90     -38.3625      2.00000
     91     -38.3609      2.00000
     92     -38.3593      2.00000
     93     -38.3552      2.00000
     94     -38.3526      2.00000
     95     -38.3467      2.00000
     96     -38.3320      2.00000
     97     -38.3307      2.00000
     98     -38.3267      2.00000
     99     -38.3234      2.00000
    100     -38.3187      2.00000
    101     -38.3173      2.00000
    102     -38.2996      2.00000
    103     -38.2948      2.00000
    104     -38.2913      2.00000
    105     -38.1972      2.00000
    106     -38.1869      2.00000
    107     -38.1829      2.00000
    108     -38.1824      2.00000
    109     -38.1757      2.00000
    110     -38.1738      2.00000
    111     -38.1710      2.00000
    112     -38.1702      2.00000
    113     -38.1655      2.00000
    114     -38.1637      2.00000
    115     -38.1637      2.00000
    116     -38.1630      2.00000
    117     -38.1606      2.00000
    118     -38.1600      2.00000
    119     -38.1587      2.00000
    120     -38.1531      2.00000
    121     -38.1141      2.00000
    122     -38.1078      2.00000
    123     -38.1057      2.00000
    124     -38.1038      2.00000
    125     -38.1030      2.00000
    126     -38.1011      2.00000
    127     -38.0960      2.00000
    128     -38.0893      2.00000
    129     -38.0868      2.00000
    130     -38.0826      2.00000
    131     -38.0825      2.00000
    132     -38.0801      2.00000
    133     -38.0786      2.00000
    134     -38.0776      2.00000
    135     -38.0754      2.00000
    136     -38.0392      2.00000
    137     -38.0373      2.00000
    138     -38.0369      2.00000
    139     -38.0319      2.00000
    140     -38.0305      2.00000
    141     -38.0295      2.00000
    142     -37.9974      2.00000
    143     -37.9944      2.00000
    144     -37.9895      2.00000
    145     -37.9874      2.00000
    146     -37.9854      2.00000
    147     -37.9672      2.00000
    148     -37.9617      2.00000
    149     -37.9391      2.00000
    150     -37.9360      2.00000
    151     -37.9268      2.00000
    152     -37.9242      2.00000
    153     -37.9219      2.00000
    154     -37.9045      2.00000
    155     -37.8871      2.00000
    156     -37.8810      2.00000
    157     -37.8578      2.00000
    158     -37.8563      2.00000
    159     -37.8542      2.00000
    160     -37.8515      2.00000
    161     -37.8507      2.00000
    162     -37.8501      2.00000
    163     -37.8487      2.00000
    164     -37.8479      2.00000
    165     -37.8453      2.00000
    166     -37.8402      2.00000
    167     -37.8350      2.00000
    168     -37.8337      2.00000
    169     -37.8309      2.00000
    170     -37.8300      2.00000
    171     -37.8005      2.00000
    172     -37.7858      2.00000
    173     -37.7780      2.00000
    174     -37.7749      2.00000
    175     -37.7704      2.00000
    176     -37.7690      2.00000
    177     -37.7689      2.00000
    178     -37.7656      2.00000
    179     -37.7640      2.00000
    180     -37.7621      2.00000
    181     -37.7427      2.00000
    182     -37.7222      2.00000
    183     -37.7201      2.00000
    184     -37.7190      2.00000
    185     -37.7136      2.00000
    186     -37.7025      2.00000
    187     -37.6862      2.00000
    188     -37.6855      2.00000
    189     -37.6715      2.00000
    190     -37.6700      2.00000
    191     -37.6666      2.00000
    192     -37.6650      2.00000
    193     -37.6610      2.00000
    194     -37.6592      2.00000
    195     -37.6484      2.00000
    196     -37.6465      2.00000
    197     -37.6412      2.00000
    198     -37.6385      2.00000
    199     -37.6377      2.00000
    200     -37.6363      2.00000
    201     -37.6343      2.00000
    202     -37.6333      2.00000
    203     -37.6330      2.00000
    204     -37.6306      2.00000
    205     -37.6303      2.00000
    206     -37.6276      2.00000
    207     -37.6221      2.00000
    208     -37.6165      2.00000
    209     -37.6128      2.00000
    210     -37.6118      2.00000
    211     -37.6090      2.00000
    212     -37.6078      2.00000
    213     -37.5931      2.00000
    214     -37.5893      2.00000
    215     -37.5885      2.00000
    216     -37.5857      2.00000
    217     -37.5849      2.00000
    218     -37.5841      2.00000
    219     -37.5833      2.00000
    220     -37.5813      2.00000
    221     -37.5791      2.00000
    222     -37.5639      2.00000
    223     -37.5626      2.00000
    224     -37.5612      2.00000
    225     -37.5611      2.00000
    226     -37.5597      2.00000
    227     -37.5595      2.00000
    228     -37.5574      2.00000
    229     -37.5563      2.00000
    230     -37.5522      2.00000
    231     -37.5519      2.00000
    232     -37.5507      2.00000
    233     -37.5497      2.00000
    234     -37.5485      2.00000
    235     -37.5448      2.00000
    236     -37.5383      2.00000
    237     -37.5271      2.00000
    238     -37.4922      2.00000
    239     -37.4697      2.00000
    240     -37.4607      2.00000
    241     -37.4554      2.00000
    242     -37.4525      2.00000
    243     -37.4471      2.00000
    244     -37.4443      2.00000
    245     -37.4440      2.00000
    246     -37.4409      2.00000
    247     -37.3847      2.00000
    248     -37.3818      2.00000
    249     -37.3689      2.00000
    250     -37.3684      2.00000
    251     -37.3676      2.00000
    252     -37.3668      2.00000
    253     -37.3664      2.00000
    254     -37.3647      2.00000
    255     -37.2888      2.00000
    256     -37.2876      2.00000
    257     -12.0271      2.00000
    258      -3.2460      2.00000
    259      -2.5327      2.00000
    260      -1.8600      2.00000
    261      -1.2896      2.00000
    262      -1.0808      2.00000
    263      -1.0767      2.00000
    264      -1.0765      2.00000
    265      -0.9750      2.00000
    266      -0.9736      2.00000
    267      -0.9595      2.00000
    268      -0.9567      2.00000
    269      -0.9529      2.00000
    270      -0.9463      2.00000
    271      -0.9393      2.00000
    272      -0.9378      2.00000
    273      -0.9299      2.00000
    274      -0.8402      2.00000
    275      -0.8022      2.00000
    276      -0.7904      2.00000
    277      -0.7530      2.00000
    278      -0.5010      2.00000
    279      -0.3096      2.00000
    280      -0.2904      2.00000
    281      -0.2891      2.00000
    282      -0.2856      2.00000
    283      -0.2702      2.00000
    284      -0.2687      2.00000
    285      -0.2604      2.00000
    286      -0.2542      2.00000
    287      -0.2512      2.00000
    288      -0.2494      2.00000
    289      -0.2475      2.00000
    290      -0.2296      2.00000
    291      -0.0769      2.00000
    292      -0.0680      2.00000
    293      -0.0632      2.00000
    294      -0.0619      2.00000
    295      -0.0542      2.00000
    296      -0.0366      2.00000
    297      -0.0329      2.00000
    298      -0.0246      2.00000
    299      -0.0165      2.00000
    300      -0.0110      2.00000
    301       0.0000      2.00000
    302       0.0035      2.00000
    303       0.0352      2.00000
    304       0.0374      2.00000
    305       0.1139      2.00000
    306       0.3237      2.00000
    307       0.3562      2.00000
    308       0.3568      2.00000
    309       0.3727      2.00000
    310       0.3774      2.00000
    311       0.3851      2.00000
    312       0.4422      2.00000
    313       0.4644      2.00000
    314       0.4908      2.00000
    315       0.4977      2.00000
    316       0.5352      2.00000
    317       0.5385      2.00000
    318       0.5498      2.00000
    319       0.5552      2.00000
    320       0.5582      2.00000
    321       0.5600      2.00000
    322       0.5716      2.00000
    323       0.5728      2.00000
    324       0.5899      2.00000
    325       0.5902      2.00000
    326       0.5919      2.00000
    327       0.5954      2.00000
    328       0.6036      2.00000
    329       0.6943      2.00000
    330       0.7271      2.00000
    331       0.8007      2.00000
    332       0.8011      2.00000
    333       0.8104      2.00000
    334       0.8133      2.00000
    335       0.8253      2.00000
    336       0.8890      2.00000
    337       0.9158      2.00000
    338       0.9205      2.00000
    339       0.9264      2.00000
    340       0.9318      2.00000
    341       0.9627      2.00000
    342       1.1490      2.00000
    343       1.1982      2.00000
    344       1.2027      2.00000
    345       1.2196      2.00000
    346       1.2196      2.00000
    347       1.2240      2.00000
    348       1.2320      2.00000
    349       1.2324      2.00000
    350       1.2625      2.00000
    351       1.3113      2.00000
    352       1.3230      2.00000
    353       1.3323      2.00000
    354       1.3378      2.00000
    355       1.3414      2.00000
    356       1.3719      2.00000
    357       1.3845      2.00000
    358       1.4915      2.00000
    359       1.4939      2.00000
    360       1.4944      2.00000
    361       1.4996      2.00000
    362       1.5041      2.00000
    363       1.5072      2.00000
    364       1.6093      2.00000
    365       1.6119      2.00000
    366       1.6132      2.00000
    367       1.6134      2.00000
    368       1.6444      2.00000
    369       1.7510      2.00000
    370       1.8944      2.00000
    371       1.9001      2.00000
    372       1.9016      2.00000
    373       1.9100      2.00000
    374       1.9103      2.00000
    375       1.9561      2.00000
    376       2.0951      2.00000
    377       2.0956      2.00000
    378       2.1646      2.00000
    379       2.1686      2.00000
    380       2.1764      2.00000
    381       2.1784      2.00000
    382       2.1828      2.00000
    383       2.1954      2.00000
    384       2.1966      2.00000
    385       2.2036      2.00000
    386       2.2122      2.00000
    387       2.2370      2.00000
    388       2.2385      2.00000
    389       2.2413      2.00000
    390       2.2653      2.00000
    391       2.2672      2.00000
    392       2.2718      2.00000
    393       2.2746      2.00000
    394       2.2887      2.00000
    395       2.4397      2.00000
    396       2.4463      2.00000
    397       2.4517      2.00000
    398       2.4590      2.00000
    399       2.4707      2.00000
    400       2.4823      2.00000
    401       2.4824      2.00000
    402       2.4922      2.00000
    403       2.5111      2.00000
    404       2.5387      2.00000
    405       2.5565      2.00000
    406       2.6423      2.00000
    407       2.6496      2.00000
    408       2.6515      2.00000
    409       2.6668      2.00000
    410       2.6671      2.00000
    411       2.6903      2.00000
    412       2.8387      2.00000
    413       2.8620      2.00000
    414       2.8723      2.00000
    415       2.8887      2.00000
    416       2.8956      2.00000
    417       2.9082      2.00000
    418       2.9228      2.00000
    419       2.9302      2.00000
    420       2.9473      2.00000
    421       2.9487      2.00000
    422       2.9647      2.00000
    423       2.9689      2.00000
    424       2.9889      2.00000
    425       2.9925      2.00000
    426       3.0280      2.00000
    427       3.0426      2.00000
    428       3.0443      2.00000
    429       3.0532      2.00000
    430       3.0658      2.00000
    431       3.0694      2.00000
    432       3.0701      2.00000
    433       3.0954      2.00000
    434       3.1023      2.00000
    435       3.1063      2.00000
    436       3.1074      2.00000
    437       3.1279      2.00000
    438       3.1335      2.00000
    439       3.1386      2.00000
    440       3.1476      2.00000
    441       3.1530      2.00000
    442       3.1537      2.00000
    443       3.1569      2.00000
    444       3.1744      2.00000
    445       3.2004      2.00000
    446       3.2428      2.00000
    447       3.2456      2.00000
    448       3.2552      2.00000
    449       3.2595      2.00000
    450       3.2605      2.00000
    451       3.2609      2.00000
    452       3.2658      2.00000
    453       3.2704      2.00000
    454       3.2774      2.00000
    455       3.2786      2.00000
    456       3.3016      2.00000
    457       3.3229      2.00000
    458       3.3591      2.00000
    459       3.3620      2.00000
    460       3.3668      2.00000
    461       3.3727      2.00000
    462       3.3772      2.00000
    463       3.3776      2.00000
    464       3.3839      2.00000
    465       3.3855      2.00000
    466       3.3965      2.00000
    467       3.4014      2.00000
    468       3.4113      2.00000
    469       3.4128      2.00000
    470       3.4625      2.00000
    471       3.4749      2.00000
    472       3.5003      2.00000
    473       3.6109      2.00000
    474       3.6279      2.00000
    475       3.6389      2.00000
    476       3.8498      2.00000
    477       3.9259      2.00000
    478       3.9297      2.00000
    479       3.9347      2.00000
    480       3.9360      2.00000
    481       3.9390      2.00000
    482       3.9451      2.00000
    483       3.9486      2.00000
    484       4.0202      2.00000
    485       4.0775      2.00000
    486       4.0828      2.00000
    487       4.0901      2.00000
    488       4.3115      2.00000
    489       4.3118      2.00000
    490       4.3177      2.00000
    491       4.3189      2.00000
    492       4.3232      2.00000
    493       4.3383      2.00000
    494       4.3430      2.00000
    495       4.3509      2.00000
    496       4.3518      2.00000
    497       4.3572      2.00000
    498       4.3616      2.00000
    499       4.3728      2.00000
    500       4.3732      2.00000
    501       4.3878      2.00000
    502       4.3921      2.00000
    503       4.3932      2.00000
    504       4.4163      2.00000
    505       4.5502      2.00000
    506       4.8367      2.00000
    507       4.8467      2.00000
    508       4.8530      2.00000
    509       4.8795      2.00000
    510       4.8819      2.00000
    511       4.8908      2.00000
    512       4.9504      1.80664
    513       4.9609      0.85801
    514       4.9723      0.07270
    515       4.9860      0.00020
    516       4.9866      0.00014
    517       5.0154      0.00000
    518       5.0257      0.00000
    519       5.0353      0.00000
    520       5.0380      0.00000
    521       5.0416      0.00000
    522       5.0432      0.00000
    523       5.0548      0.00000
    524       5.0661      0.00000
    525       5.0724      0.00000
    526       5.0822      0.00000
    527       5.0911      0.00000
    528       5.0976      0.00000
    529       5.1012      0.00000
    530       5.1055      0.00000
    531       5.1109      0.00000
    532       5.1131      0.00000
    533       5.1141      0.00000
    534       5.1170      0.00000
    535       5.1207      0.00000
    536       5.1458      0.00000
    537       5.1617      0.00000
    538       5.2330      0.00000
    539       5.2829      0.00000
    540       5.2933      0.00000
    541       5.2953      0.00000
    542       5.3349      0.00000
    543       5.5189      0.00000
    544       5.7916      0.00000
    545       5.8455      0.00000
    546       5.8460      0.00000
    547       5.8625      0.00000
    548       5.8761      0.00000
    549       5.8808      0.00000
    550       5.8942      0.00000
    551       5.9066      0.00000
    552       5.9085      0.00000
    553       5.9395      0.00000
    554       5.9454      0.00000
    555       5.9534      0.00000
    556       5.9645      0.00000
    557       5.9669      0.00000
    558       5.9698      0.00000
    559       5.9985      0.00000
    560       6.0704      0.00000
    561       6.0861      0.00000
    562       6.1033      0.00000
    563       6.1518      0.00000
    564       6.2574      0.00000
    565       6.2581      0.00000
    566       6.2662      0.00000
    567       6.2711      0.00000
    568       6.3113      0.00000
    569       6.3253      0.00000
    570       6.3285      0.00000
    571       6.4021      0.00000
    572       6.4189      0.00000
    573       6.4257      0.00000
    574       6.4264      0.00000
    575       6.4357      0.00000
    576       6.4417      0.00000
    577       6.4438      0.00000
    578       6.4482      0.00000
    579       6.4560      0.00000
    580       6.4580      0.00000
    581       6.4655      0.00000
    582       6.4668      0.00000
    583       6.4925      0.00000
    584       6.4944      0.00000
    585       6.4966      0.00000
    586       6.5504      0.00000
    587       6.5567      0.00000
    588       6.5584      0.00000
    589       6.5621      0.00000
    590       6.5660      0.00000
    591       6.5679      0.00000
    592       6.5707      0.00000
    593       6.5752      0.00000
    594       6.5820      0.00000
    595       6.5840      0.00000
    596       6.8469      0.00000
    597       6.8631      0.00000
    598       6.8668      0.00000
    599       6.9540      0.00000
    600       6.9552      0.00000
    601       6.9604      0.00000
    602       6.9916      0.00000
    603       7.0577      0.00000
    604       7.3546      0.00000
    605       7.3791      0.00000
    606       7.6835      0.00000
    607       8.1603      0.00000
    608       8.2007      0.00000
    609       8.2285      0.00000
    610       8.7234      0.00000
    611       8.7561      0.00000
    612       8.7781      0.00000
    613       8.7954      0.00000
    614       8.8000      0.00000
    615       8.8516      0.00000
    616       8.9451      0.00000
    617       9.0059      0.00000
    618       9.0423      0.00000

 k-point     2 :       0.3333    0.0000    0.0000
  band No.  band energies     occupation 
      1     -68.3036      2.00000
      2     -68.2831      2.00000
      3     -68.2640      2.00000
      4     -68.2534      2.00000
      5     -68.2374      2.00000
      6     -68.2253      2.00000
      7     -68.2175      2.00000
      8     -68.2091      2.00000
      9     -68.2002      2.00000
     10     -68.1918      2.00000
     11     -68.1866      2.00000
     12     -68.1849      2.00000
     13     -68.1831      2.00000
     14     -68.1783      2.00000
     15     -68.1722      2.00000
     16     -68.1659      2.00000
     17     -68.1570      2.00000
     18     -68.1560      2.00000
     19     -68.1443      2.00000
     20     -68.1383      2.00000
     21     -68.1334      2.00000
     22     -68.1276      2.00000
     23     -68.1243      2.00000
     24     -68.1214      2.00000
     25     -68.1157      2.00000
     26     -68.1129      2.00000
     27     -68.1112      2.00000
     28     -68.1102      2.00000
     29     -68.1062      2.00000
     30     -68.1048      2.00000
     31     -68.0984      2.00000
     32     -68.0953      2.00000
     33     -67.8608      2.00000
     34     -67.8264      2.00000
     35     -67.7874      2.00000
     36     -67.7765      2.00000
     37     -67.7554      2.00000
     38     -67.7461      2.00000
     39     -67.7381      2.00000
     40     -67.7289      2.00000
     41     -67.7253      2.00000
     42     -67.7205      2.00000
     43     -67.7092      2.00000
     44     -67.7018      2.00000
     45     -67.7015      2.00000
     46     -67.7001      2.00000
     47     -67.6983      2.00000
     48     -67.6964      2.00000
     49     -67.6856      2.00000
     50     -67.6852      2.00000
     51     -67.6717      2.00000
     52     -67.6697      2.00000
     53     -67.6489      2.00000
     54     -67.6467      2.00000
     55     -67.6397      2.00000
     56     -67.6318      2.00000
     57     -67.6302      2.00000
     58     -67.6234      2.00000
     59     -67.6171      2.00000
     60     -67.6164      2.00000
     61     -67.6160      2.00000
     62     -67.6133      2.00000
     63     -67.6082      2.00000
     64     -67.6058      2.00000
     65     -38.6479      2.00000
     66     -38.6420      2.00000
     67     -38.6365      2.00000
     68     -38.6240      2.00000
     69     -38.6009      2.00000
     70     -38.5798      2.00000
     71     -38.5773      2.00000
     72     -38.5749      2.00000
     73     -38.5715      2.00000
     74     -38.5640      2.00000
     75     -38.5565      2.00000
     76     -38.5504      2.00000
     77     -38.5468      2.00000
     78     -38.5358      2.00000
     79     -38.5297      2.00000
     80     -38.5248      2.00000
     81     -38.5203      2.00000
     82     -38.5122      2.00000
     83     -38.5104      2.00000
     84     -38.5076      2.00000
     85     -38.5026      2.00000
     86     -38.4983      2.00000
     87     -38.4918      2.00000
     88     -38.4842      2.00000
     89     -38.4834      2.00000
     90     -38.4705      2.00000
     91     -38.4322      2.00000
     92     -38.4246      2.00000
     93     -38.3524      2.00000
     94     -38.3502      2.00000
     95     -38.3088      2.00000
     96     -38.3032      2.00000
     97     -38.3000      2.00000
     98     -38.2978      2.00000
     99     -38.2959      2.00000
    100     -38.2933      2.00000
    101     -38.2901      2.00000
    102     -38.2859      2.00000
    103     -38.2826      2.00000
    104     -38.2727      2.00000
    105     -38.2415      2.00000
    106     -38.2399      2.00000
    107     -38.2379      2.00000
    108     -38.2117      2.00000
    109     -38.2051      2.00000
    110     -38.1993      2.00000
    111     -38.1905      2.00000
    112     -38.1856      2.00000
    113     -38.1817      2.00000
    114     -38.1796      2.00000
    115     -38.1614      2.00000
    116     -38.1459      2.00000
    117     -38.1414      2.00000
    118     -38.1217      2.00000
    119     -38.1176      2.00000
    120     -38.1134      2.00000
    121     -38.1121      2.00000
    122     -38.1086      2.00000
    123     -38.1040      2.00000
    124     -38.1005      2.00000
    125     -38.0993      2.00000
    126     -38.0970      2.00000
    127     -38.0955      2.00000
    128     -38.0890      2.00000
    129     -38.0759      2.00000
    130     -38.0706      2.00000
    131     -38.0682      2.00000
    132     -38.0641      2.00000
    133     -38.0597      2.00000
    134     -38.0426      2.00000
    135     -38.0411      2.00000
    136     -38.0378      2.00000
    137     -38.0273      2.00000
    138     -38.0231      2.00000
    139     -38.0129      2.00000
    140     -38.0103      2.00000
    141     -38.0061      2.00000
    142     -37.9959      2.00000
    143     -37.9920      2.00000
    144     -37.9802      2.00000
    145     -37.9774      2.00000
    146     -37.9695      2.00000
    147     -37.9656      2.00000
    148     -37.9607      2.00000
    149     -37.9449      2.00000
    150     -37.9333      2.00000
    151     -37.9200      2.00000
    152     -37.9153      2.00000
    153     -37.9113      2.00000
    154     -37.9100      2.00000
    155     -37.9023      2.00000
    156     -37.8997      2.00000
    157     -37.8955      2.00000
    158     -37.8896      2.00000
    159     -37.8843      2.00000
    160     -37.8775      2.00000
    161     -37.8698      2.00000
    162     -37.8563      2.00000
    163     -37.8525      2.00000
    164     -37.8489      2.00000
    165     -37.8427      2.00000
    166     -37.8380      2.00000
    167     -37.8280      2.00000
    168     -37.8236      2.00000
    169     -37.8232      2.00000
    170     -37.8179      2.00000
    171     -37.8136      2.00000
    172     -37.8126      2.00000
    173     -37.8020      2.00000
    174     -37.7937      2.00000
    175     -37.7931      2.00000
    176     -37.7892      2.00000
    177     -37.7865      2.00000
    178     -37.7825      2.00000
    179     -37.7809      2.00000
    180     -37.7768      2.00000
    181     -37.7513      2.00000
    182     -37.7428      2.00000
    183     -37.7404      2.00000
    184     -37.7312      2.00000
    185     -37.7147      2.00000
    186     -37.7023      2.00000
    187     -37.6975      2.00000
    188     -37.6959      2.00000
    189     -37.6825      2.00000
    190     -37.6736      2.00000
    191     -37.6677      2.00000
    192     -37.6646      2.00000
    193     -37.6599      2.00000
    194     -37.6593      2.00000
    195     -37.6554      2.00000
    196     -37.6505      2.00000
    197     -37.6468      2.00000
    198     -37.6454      2.00000
    199     -37.6386      2.00000
    200     -37.6345      2.00000
    201     -37.6297      2.00000
    202     -37.6280      2.00000
    203     -37.6266      2.00000
    204     -37.6234      2.00000
    205     -37.6189      2.00000
    206     -37.6159      2.00000
    207     -37.6097      2.00000
    208     -37.6048      2.00000
    209     -37.5943      2.00000
    210     -37.5914      2.00000
    211     -37.5890      2.00000
    212     -37.5868      2.00000
    213     -37.5852      2.00000
    214     -37.5831      2.00000
    215     -37.5821      2.00000
    216     -37.5813      2.00000
    217     -37.5803      2.00000
    218     -37.5785      2.00000
    219     -37.5774      2.00000
    220     -37.5767      2.00000
    221     -37.5749      2.00000
    222     -37.5739      2.00000
    223     -37.5729      2.00000
    224     -37.5716      2.00000
    225     -37.5693      2.00000
    226     -37.5640      2.00000
    227     -37.5582      2.00000
    228     -37.5537      2.00000
    229     -37.5296      2.00000
    230     -37.5283      2.00000
    231     -37.5268      2.00000
    232     -37.5252      2.00000
    233     -37.5222      2.00000
    234     -37.5206      2.00000
    235     -37.5096      2.00000
    236     -37.5011      2.00000
    237     -37.4893      2.00000
    238     -37.4817      2.00000
    239     -37.4805      2.00000
    240     -37.4704      2.00000
    241     -37.4686      2.00000
    242     -37.4607      2.00000
    243     -37.4464      2.00000
    244     -37.4455      2.00000
    245     -37.4350      2.00000
    246     -37.4228      2.00000
    247     -37.4219      2.00000
    248     -37.4080      2.00000
    249     -37.4068      2.00000
    250     -37.4062      2.00000
    251     -37.3920      2.00000
    252     -37.3615      2.00000
    253     -37.3605      2.00000
    254     -37.3320      2.00000
    255     -37.3281      2.00000
    256     -37.2991      2.00000
    257     -12.0271      2.00000
    258      -3.2460      2.00000
    259      -2.2969      2.00000
    260      -1.8593      2.00000
    261      -1.6037      2.00000
    262      -1.0964      2.00000
    263      -1.0889      2.00000
    264      -1.0583      2.00000
    265      -0.9912      2.00000
    266      -0.8899      2.00000
    267      -0.8841      2.00000
    268      -0.8619      2.00000
    269      -0.8273      2.00000
    270      -0.8150      2.00000
    271      -0.7952      2.00000
    272      -0.6664      2.00000
    273      -0.6462      2.00000
    274      -0.6356      2.00000
    275      -0.6296      2.00000
    276      -0.6256      2.00000
    277      -0.5995      2.00000
    278      -0.5476      2.00000
    279      -0.5355      2.00000
    280      -0.5038      2.00000
    281      -0.4957      2.00000
    282      -0.3877      2.00000
    283      -0.3778      2.00000
    284      -0.3668      2.00000
    285      -0.3614      2.00000
    286      -0.2845      2.00000
    287      -0.2762      2.00000
    288      -0.2560      2.00000
    289      -0.2468      2.00000
    290      -0.2358      2.00000
    291      -0.2194      2.00000
    292      -0.1996      2.00000
    293      -0.1801      2.00000
    294      -0.1646      2.00000
    295      -0.1537      2.00000
    296      -0.1324      2.00000
    297      -0.1138      2.00000
    298      -0.1047      2.00000
    299      -0.0204      2.00000
    300      -0.0129      2.00000
    301      -0.0064      2.00000
    302       0.0290      2.00000
    303       0.0547      2.00000
    304       0.0853      2.00000
    305       0.1255      2.00000
    306       0.1932      2.00000
    307       0.2102      2.00000
    308       0.2320      2.00000
    309       0.2584      2.00000
    310       0.3023      2.00000
    311       0.3113      2.00000
    312       0.3568      2.00000
    313       0.3715      2.00000
    314       0.3995      2.00000
    315       0.4370      2.00000
    316       0.4740      2.00000
    317       0.5199      2.00000
    318       0.5322      2.00000
    319       0.5535      2.00000
    320       0.5671      2.00000
    321       0.5800      2.00000
    322       0.5910      2.00000
    323       0.6046      2.00000
    324       0.6234      2.00000
    325       0.6559      2.00000
    326       0.6748      2.00000
    327       0.6885      2.00000
    328       0.7290      2.00000
    329       0.7492      2.00000
    330       0.7882      2.00000
    331       0.8262      2.00000
    332       0.8417      2.00000
    333       0.8522      2.00000
    334       0.8767      2.00000
    335       0.8957      2.00000
    336       0.9063      2.00000
    337       0.9176      2.00000
    338       0.9277      2.00000
    339       0.9506      2.00000
    340       0.9649      2.00000
    341       0.9783      2.00000
    342       0.9913      2.00000
    343       1.0098      2.00000
    344       1.0299      2.00000
    345       1.0639      2.00000
    346       1.1323      2.00000
    347       1.1391      2.00000
    348       1.1427      2.00000
    349       1.1730      2.00000
    350       1.2487      2.00000
    351       1.2564      2.00000
    352       1.2904      2.00000
    353       1.3045      2.00000
    354       1.3203      2.00000
    355       1.3458      2.00000
    356       1.3727      2.00000
    357       1.4093      2.00000
    358       1.4758      2.00000
    359       1.4910      2.00000
    360       1.5602      2.00000
    361       1.5774      2.00000
    362       1.5882      2.00000
    363       1.5987      2.00000
    364       1.6343      2.00000
    365       1.6438      2.00000
    366       1.6543      2.00000
    367       1.6627      2.00000
    368       1.6842      2.00000
    369       1.7745      2.00000
    370       1.7905      2.00000
    371       1.8084      2.00000
    372       1.8417      2.00000
    373       1.9106      2.00000
    374       1.9279      2.00000
    375       2.0205      2.00000
    376       2.0303      2.00000
    377       2.0394      2.00000
    378       2.0588      2.00000
    379       2.0743      2.00000
    380       2.0974      2.00000
    381       2.1021      2.00000
    382       2.1135      2.00000
    383       2.1208      2.00000
    384       2.1812      2.00000
    385       2.1939      2.00000
    386       2.2228      2.00000
    387       2.2401      2.00000
    388       2.2427      2.00000
    389       2.2582      2.00000
    390       2.2651      2.00000
    391       2.2686      2.00000
    392       2.2784      2.00000
    393       2.2936      2.00000
    394       2.3051      2.00000
    395       2.3182      2.00000
    396       2.3215      2.00000
    397       2.3686      2.00000
    398       2.4151      2.00000
    399       2.4280      2.00000
    400       2.4559      2.00000
    401       2.4622      2.00000
    402       2.4679      2.00000
    403       2.4758      2.00000
    404       2.4860      2.00000
    405       2.5158      2.00000
    406       2.5614      2.00000
    407       2.6253      2.00000
    408       2.6377      2.00000
    409       2.6478      2.00000
    410       2.6693      2.00000
    411       2.6776      2.00000
    412       2.7014      2.00000
    413       2.7426      2.00000
    414       2.7555      2.00000
    415       2.7834      2.00000
    416       2.8236      2.00000
    417       2.8358      2.00000
    418       2.8501      2.00000
    419       2.8744      2.00000
    420       2.8982      2.00000
    421       2.9111      2.00000
    422       2.9180      2.00000
    423       2.9432      2.00000
    424       2.9509      2.00000
    425       2.9642      2.00000
    426       2.9929      2.00000
    427       3.0006      2.00000
    428       3.0108      2.00000
    429       3.0303      2.00000
    430       3.0469      2.00000
    431       3.0521      2.00000
    432       3.0625      2.00000
    433       3.0722      2.00000
    434       3.0936      2.00000
    435       3.1034      2.00000
    436       3.1099      2.00000
    437       3.1182      2.00000
    438       3.1322      2.00000
    439       3.1411      2.00000
    440       3.1887      2.00000
    441       3.1994      2.00000
    442       3.2147      2.00000
    443       3.2240      2.00000
    444       3.2332      2.00000
    445       3.2451      2.00000
    446       3.2486      2.00000
    447       3.2578      2.00000
    448       3.2797      2.00000
    449       3.2989      2.00000
    450       3.3172      2.00000
    451       3.3349      2.00000
    452       3.3681      2.00000
    453       3.3770      2.00000
    454       3.4017      2.00000
    455       3.4122      2.00000
    456       3.4322      2.00000
    457       3.4395      2.00000
    458       3.4413      2.00000
    459       3.4614      2.00000
    460       3.4841      2.00000
    461       3.4909      2.00000
    462       3.5158      2.00000
    463       3.5573      2.00000
    464       3.5700      2.00000
    465       3.5878      2.00000
    466       3.6265      2.00000
    467       3.6335      2.00000
    468       3.6362      2.00000
    469       3.6615      2.00000
    470       3.6853      2.00000
    471       3.7061      2.00000
    472       3.7264      2.00000
    473       3.7441      2.00000
    474       3.7663      2.00000
    475       3.7747      2.00000
    476       3.7999      2.00000
    477       3.8461      2.00000
    478       3.8707      2.00000
    479       3.8967      2.00000
    480       3.9521      2.00000
    481       3.9846      2.00000
    482       4.0261      2.00000
    483       4.0342      2.00000
    484       4.0433      2.00000
    485       4.0601      2.00000
    486       4.0860      2.00000
    487       4.1960      2.00000
    488       4.2386      2.00000
    489       4.2621      2.00000
    490       4.2843      2.00000
    491       4.2987      2.00000
    492       4.3198      2.00000
    493       4.3970      2.00000
    494       4.4101      2.00000
    495       4.4903      2.00000
    496       4.5050      2.00000
    497       4.5526      2.00000
    498       4.5630      2.00000
    499       4.5817      2.00000
    500       4.6059      2.00000
    501       4.6199      2.00000
    502       4.6306      2.00000
    503       4.6344      2.00000
    504       4.6496      2.00000
    505       4.6592      2.00000
    506       4.6800      2.00000
    507       4.7059      2.00000
    508       4.7201      2.00000
    509       4.7447      2.00000
    510       4.7690      2.00000
    511       4.8084      2.00000
    512       4.8152      2.00000
    513       4.8490      2.00000
    514       4.8974      2.00000
    515       4.9418      1.98838
    516       4.9594      1.02148
    517       4.9689      0.19222
    518       4.9849      0.00036
    519       4.9929      0.00000
    520       5.0531      0.00000
    521       5.0649      0.00000
    522       5.1271      0.00000
    523       5.1676      0.00000
    524       5.1753      0.00000
    525       5.1869      0.00000
    526       5.1942      0.00000
    527       5.2012      0.00000
    528       5.3213      0.00000
    529       5.3348      0.00000
    530       5.3472      0.00000
    531       5.3739      0.00000
    532       5.3884      0.00000
    533       5.4360      0.00000
    534       5.4639      0.00000
    535       5.4669      0.00000
    536       5.4748      0.00000
    537       5.4876      0.00000
    538       5.5040      0.00000
    539       5.5234      0.00000
    540       5.5702      0.00000
    541       5.6079      0.00000
    542       5.6497      0.00000
    543       5.6574      0.00000
    544       5.7172      0.00000
    545       5.7267      0.00000
    546       5.7400      0.00000
    547       5.7495      0.00000
    548       5.7773      0.00000
    549       5.7863      0.00000
    550       5.8018      0.00000
    551       5.8256      0.00000
    552       5.8392      0.00000
    553       5.8516      0.00000
    554       5.8623      0.00000
    555       5.8817      0.00000
    556       5.8888      0.00000
    557       5.9010      0.00000
    558       5.9362      0.00000
    559       5.9451      0.00000
    560       5.9592      0.00000
    561       5.9719      0.00000
    562       5.9841      0.00000
    563       6.0054      0.00000
    564       6.0337      0.00000
    565       6.0369      0.00000
    566       6.0950      0.00000
    567       6.1508      0.00000
    568       6.1619      0.00000
    569       6.1740      0.00000
    570       6.1769      0.00000
    571       6.1780      0.00000
    572       6.1942      0.00000
    573       6.2163      0.00000
    574       6.2374      0.00000
    575       6.2619      0.00000
    576       6.2964      0.00000
    577       6.3104      0.00000
    578       6.3247      0.00000
    579       6.3336      0.00000
    580       6.3555      0.00000
    581       6.3688      0.00000
    582       6.3793      0.00000
    583       6.3950      0.00000
    584       6.4148      0.00000
    585       6.4200      0.00000
    586       6.4262      0.00000
    587       6.4350      0.00000
    588       6.4392      0.00000
    589       6.4967      0.00000
    590       6.5487      0.00000
    591       6.5597      0.00000
    592       6.5755      0.00000
    593       6.5792      0.00000
    594       6.5908      0.00000
    595       6.5939      0.00000
    596       6.6405      0.00000
    597       6.6568      0.00000
    598       6.6847      0.00000
    599       6.7576      0.00000
    600       6.9321      0.00000
    601       6.9705      0.00000
    602       7.1536      0.00000
    603       7.1617      0.00000
    604       7.2057      0.00000
    605       7.3184      0.00000
    606       7.5753      0.00000
    607       7.6296      0.00000
    608       7.6663      0.00000
    609       7.7204      0.00000
    610       7.7790      0.00000
    611       8.3298      0.00000
    612       8.3604      0.00000
    613       8.3961      0.00000
    614       8.4045      0.00000
    615       8.4381      0.00000
    616       8.4730      0.00000
    617       8.5530      0.00000
    618       8.8042      0.00000

 k-point     3 :       0.0000    0.3333    0.0000
  band No.  band energies     occupation 
      1     -68.3045      2.00000
      2     -68.2781      2.00000
      3     -68.2678      2.00000
      4     -68.2571      2.00000
      5     -68.2333      2.00000
      6     -68.2245      2.00000
      7     -68.2189      2.00000
      8     -68.2079      2.00000
      9     -68.1967      2.00000
     10     -68.1923      2.00000
     11     -68.1906      2.00000
     12     -68.1894      2.00000
     13     -68.1827      2.00000
     14     -68.1747      2.00000
     15     -68.1720      2.00000
     16     -68.1661      2.00000
     17     -68.1567      2.00000
     18     -68.1560      2.00000
     19     -68.1427      2.00000
     20     -68.1391      2.00000
     21     -68.1352      2.00000
     22     -68.1266      2.00000
     23     -68.1243      2.00000
     24     -68.1202      2.00000
     25     -68.1172      2.00000
     26     -68.1141      2.00000
     27     -68.1132      2.00000
     28     -68.1067      2.00000
     29     -68.1056      2.00000
     30     -68.1044      2.00000
     31     -68.1003      2.00000
     32     -68.0947      2.00000
     33     -67.8609      2.00000
     34     -67.8260      2.00000
     35     -67.7912      2.00000
     36     -67.7658      2.00000
     37     -67.7579      2.00000
     38     -67.7575      2.00000
     39     -67.7347      2.00000
     40     -67.7233      2.00000
     41     -67.7218      2.00000
     42     -67.7217      2.00000
     43     -67.7110      2.00000
     44     -67.7080      2.00000
     45     -67.7018      2.00000
     46     -67.7002      2.00000
     47     -67.6976      2.00000
     48     -67.6933      2.00000
     49     -67.6857      2.00000
     50     -67.6852      2.00000
     51     -67.6707      2.00000
     52     -67.6706      2.00000
     53     -67.6483      2.00000
     54     -67.6481      2.00000
     55     -67.6392      2.00000
     56     -67.6306      2.00000
     57     -67.6306      2.00000
     58     -67.6220      2.00000
     59     -67.6190      2.00000
     60     -67.6184      2.00000
     61     -67.6158      2.00000
     62     -67.6114      2.00000
     63     -67.6071      2.00000
     64     -67.6069      2.00000
     65     -38.6476      2.00000
     66     -38.6434      2.00000
     67     -38.6390      2.00000
     68     -38.6222      2.00000
     69     -38.5980      2.00000
     70     -38.5833      2.00000
     71     -38.5774      2.00000
     72     -38.5721      2.00000
     73     -38.5673      2.00000
     74     -38.5667      2.00000
     75     -38.5559      2.00000
     76     -38.5552      2.00000
     77     -38.5429      2.00000
     78     -38.5363      2.00000
     79     -38.5267      2.00000
     80     -38.5259      2.00000
     81     -38.5157      2.00000
     82     -38.5138      2.00000
     83     -38.5129      2.00000
     84     -38.5080      2.00000
     85     -38.5061      2.00000
     86     -38.4992      2.00000
     87     -38.4883      2.00000
     88     -38.4877      2.00000
     89     -38.4844      2.00000
     90     -38.4661      2.00000
     91     -38.4291      2.00000
     92     -38.4285      2.00000
     93     -38.3549      2.00000
     94     -38.3478      2.00000
     95     -38.3090      2.00000
     96     -38.3060      2.00000
     97     -38.3005      2.00000
     98     -38.3003      2.00000
     99     -38.2951      2.00000
    100     -38.2927      2.00000
    101     -38.2909      2.00000
    102     -38.2854      2.00000
    103     -38.2830      2.00000
    104     -38.2737      2.00000
    105     -38.2413      2.00000
    106     -38.2396      2.00000
    107     -38.2377      2.00000
    108     -38.2120      2.00000
    109     -38.2064      2.00000
    110     -38.2012      2.00000
    111     -38.1902      2.00000
    112     -38.1899      2.00000
    113     -38.1818      2.00000
    114     -38.1766      2.00000
    115     -38.1548      2.00000
    116     -38.1406      2.00000
    117     -38.1400      2.00000
    118     -38.1261      2.00000
    119     -38.1204      2.00000
    120     -38.1138      2.00000
    121     -38.1122      2.00000
    122     -38.1064      2.00000
    123     -38.1022      2.00000
    124     -38.0993      2.00000
    125     -38.0984      2.00000
    126     -38.0955      2.00000
    127     -38.0944      2.00000
    128     -38.0895      2.00000
    129     -38.0751      2.00000
    130     -38.0731      2.00000
    131     -38.0685      2.00000
    132     -38.0637      2.00000
    133     -38.0599      2.00000
    134     -38.0437      2.00000
    135     -38.0415      2.00000
    136     -38.0342      2.00000
    137     -38.0271      2.00000
    138     -38.0226      2.00000
    139     -38.0126      2.00000
    140     -38.0098      2.00000
    141     -38.0081      2.00000
    142     -37.9966      2.00000
    143     -37.9933      2.00000
    144     -37.9804      2.00000
    145     -37.9718      2.00000
    146     -37.9689      2.00000
    147     -37.9656      2.00000
    148     -37.9586      2.00000
    149     -37.9414      2.00000
    150     -37.9400      2.00000
    151     -37.9199      2.00000
    152     -37.9142      2.00000
    153     -37.9134      2.00000
    154     -37.9095      2.00000
    155     -37.9032      2.00000
    156     -37.9012      2.00000
    157     -37.8979      2.00000
    158     -37.8942      2.00000
    159     -37.8822      2.00000
    160     -37.8708      2.00000
    161     -37.8629      2.00000
    162     -37.8561      2.00000
    163     -37.8543      2.00000
    164     -37.8494      2.00000
    165     -37.8442      2.00000
    166     -37.8405      2.00000
    167     -37.8340      2.00000
    168     -37.8258      2.00000
    169     -37.8219      2.00000
    170     -37.8197      2.00000
    171     -37.8130      2.00000
    172     -37.8127      2.00000
    173     -37.8030      2.00000
    174     -37.7983      2.00000
    175     -37.7916      2.00000
    176     -37.7892      2.00000
    177     -37.7878      2.00000
    178     -37.7833      2.00000
    179     -37.7824      2.00000
    180     -37.7686      2.00000
    181     -37.7572      2.00000
    182     -37.7482      2.00000
    183     -37.7399      2.00000
    184     -37.7388      2.00000
    185     -37.7080      2.00000
    186     -37.7060      2.00000
    187     -37.6965      2.00000
    188     -37.6960      2.00000
    189     -37.6777      2.00000
    190     -37.6730      2.00000
    191     -37.6690      2.00000
    192     -37.6638      2.00000
    193     -37.6596      2.00000
    194     -37.6548      2.00000
    195     -37.6527      2.00000
    196     -37.6502      2.00000
    197     -37.6479      2.00000
    198     -37.6456      2.00000
    199     -37.6428      2.00000
    200     -37.6314      2.00000
    201     -37.6271      2.00000
    202     -37.6269      2.00000
    203     -37.6246      2.00000
    204     -37.6244      2.00000
    205     -37.6194      2.00000
    206     -37.6131      2.00000
    207     -37.6078      2.00000
    208     -37.6023      2.00000
    209     -37.5929      2.00000
    210     -37.5921      2.00000
    211     -37.5890      2.00000
    212     -37.5879      2.00000
    213     -37.5869      2.00000
    214     -37.5844      2.00000
    215     -37.5819      2.00000
    216     -37.5802      2.00000
    217     -37.5795      2.00000
    218     -37.5784      2.00000
    219     -37.5777      2.00000
    220     -37.5769      2.00000
    221     -37.5757      2.00000
    222     -37.5749      2.00000
    223     -37.5744      2.00000
    224     -37.5704      2.00000
    225     -37.5693      2.00000
    226     -37.5598      2.00000
    227     -37.5580      2.00000
    228     -37.5456      2.00000
    229     -37.5365      2.00000
    230     -37.5321      2.00000
    231     -37.5295      2.00000
    232     -37.5267      2.00000
    233     -37.5221      2.00000
    234     -37.5206      2.00000
    235     -37.5097      2.00000
    236     -37.4972      2.00000
    237     -37.4924      2.00000
    238     -37.4817      2.00000
    239     -37.4805      2.00000
    240     -37.4711      2.00000
    241     -37.4688      2.00000
    242     -37.4557      2.00000
    243     -37.4514      2.00000
    244     -37.4472      2.00000
    245     -37.4341      2.00000
    246     -37.4218      2.00000
    247     -37.4208      2.00000
    248     -37.4081      2.00000
    249     -37.4068      2.00000
    250     -37.4055      2.00000
    251     -37.3933      2.00000
    252     -37.3628      2.00000
    253     -37.3609      2.00000
    254     -37.3328      2.00000
    255     -37.3272      2.00000
    256     -37.2982      2.00000
    257     -12.0271      2.00000
    258      -3.2462      2.00000
    259      -2.2991      2.00000
    260      -1.8705      2.00000
    261      -1.5843      2.00000
    262      -1.1005      2.00000
    263      -1.0916      2.00000
    264      -1.0653      2.00000
    265      -0.9927      2.00000
    266      -0.8920      2.00000
    267      -0.8868      2.00000
    268      -0.8577      2.00000
    269      -0.8221      2.00000
    270      -0.8175      2.00000
    271      -0.7972      2.00000
    272      -0.6657      2.00000
    273      -0.6360      2.00000
    274      -0.6354      2.00000
    275      -0.6333      2.00000
    276      -0.6260      2.00000
    277      -0.6119      2.00000
    278      -0.5380      2.00000
    279      -0.5269      2.00000
    280      -0.5024      2.00000
    281      -0.4985      2.00000
    282      -0.3874      2.00000
    283      -0.3735      2.00000
    284      -0.3724      2.00000
    285      -0.3638      2.00000
    286      -0.2864      2.00000
    287      -0.2686      2.00000
    288      -0.2611      2.00000
    289      -0.2511      2.00000
    290      -0.2272      2.00000
    291      -0.2097      2.00000
    292      -0.1843      2.00000
    293      -0.1716      2.00000
    294      -0.1656      2.00000
    295      -0.1597      2.00000
    296      -0.1367      2.00000
    297      -0.1201      2.00000
    298      -0.1053      2.00000
    299      -0.0201      2.00000
    300      -0.0146      2.00000
    301       0.0011      2.00000
    302       0.0073      2.00000
    303       0.0633      2.00000
    304       0.0647      2.00000
    305       0.1497      2.00000
    306       0.1980      2.00000
    307       0.2083      2.00000
    308       0.2288      2.00000
    309       0.2383      2.00000
    310       0.3057      2.00000
    311       0.3536      2.00000
    312       0.3632      2.00000
    313       0.3694      2.00000
    314       0.3836      2.00000
    315       0.4339      2.00000
    316       0.4900      2.00000
    317       0.5164      2.00000
    318       0.5468      2.00000
    319       0.5499      2.00000
    320       0.5645      2.00000
    321       0.5681      2.00000
    322       0.5977      2.00000
    323       0.6198      2.00000
    324       0.6350      2.00000
    325       0.6383      2.00000
    326       0.6749      2.00000
    327       0.6922      2.00000
    328       0.7464      2.00000
    329       0.7468      2.00000
    330       0.7736      2.00000
    331       0.7897      2.00000
    332       0.8336      2.00000
    333       0.8611      2.00000
    334       0.8805      2.00000
    335       0.8833      2.00000
    336       0.8978      2.00000
    337       0.9095      2.00000
    338       0.9271      2.00000
    339       0.9363      2.00000
    340       0.9685      2.00000
    341       0.9876      2.00000
    342       0.9891      2.00000
    343       1.0093      2.00000
    344       1.0482      2.00000
    345       1.0718      2.00000
    346       1.1300      2.00000
    347       1.1404      2.00000
    348       1.1443      2.00000
    349       1.1608      2.00000
    350       1.2506      2.00000
    351       1.2596      2.00000
    352       1.2895      2.00000
    353       1.3045      2.00000
    354       1.3206      2.00000
    355       1.3472      2.00000
    356       1.3709      2.00000
    357       1.4224      2.00000
    358       1.4792      2.00000
    359       1.4802      2.00000
    360       1.5688      2.00000
    361       1.5690      2.00000
    362       1.5898      2.00000
    363       1.5996      2.00000
    364       1.6117      2.00000
    365       1.6394      2.00000
    366       1.6467      2.00000
    367       1.6522      2.00000
    368       1.6623      2.00000
    369       1.7854      2.00000
    370       1.7911      2.00000
    371       1.8250      2.00000
    372       1.8447      2.00000
    373       1.9075      2.00000
    374       1.9192      2.00000
    375       2.0225      2.00000
    376       2.0305      2.00000
    377       2.0357      2.00000
    378       2.0644      2.00000
    379       2.0706      2.00000
    380       2.0960      2.00000
    381       2.1014      2.00000
    382       2.1103      2.00000
    383       2.1385      2.00000
    384       2.1877      2.00000
    385       2.1961      2.00000
    386       2.2255      2.00000
    387       2.2357      2.00000
    388       2.2378      2.00000
    389       2.2569      2.00000
    390       2.2645      2.00000
    391       2.2761      2.00000
    392       2.2894      2.00000
    393       2.2956      2.00000
    394       2.3085      2.00000
    395       2.3105      2.00000
    396       2.3300      2.00000
    397       2.3497      2.00000
    398       2.4084      2.00000
    399       2.4352      2.00000
    400       2.4495      2.00000
    401       2.4665      2.00000
    402       2.4725      2.00000
    403       2.4745      2.00000
    404       2.4850      2.00000
    405       2.5182      2.00000
    406       2.5327      2.00000
    407       2.6193      2.00000
    408       2.6410      2.00000
    409       2.6428      2.00000
    410       2.6503      2.00000
    411       2.6810      2.00000
    412       2.6853      2.00000
    413       2.7346      2.00000
    414       2.7894      2.00000
    415       2.7900      2.00000
    416       2.8260      2.00000
    417       2.8498      2.00000
    418       2.8533      2.00000
    419       2.8700      2.00000
    420       2.9034      2.00000
    421       2.9084      2.00000
    422       2.9244      2.00000
    423       2.9313      2.00000
    424       2.9583      2.00000
    425       2.9655      2.00000
    426       2.9887      2.00000
    427       3.0081      2.00000
    428       3.0158      2.00000
    429       3.0369      2.00000
    430       3.0414      2.00000
    431       3.0430      2.00000
    432       3.0639      2.00000
    433       3.0776      2.00000
    434       3.0851      2.00000
    435       3.0980      2.00000
    436       3.1092      2.00000
    437       3.1122      2.00000
    438       3.1233      2.00000
    439       3.1495      2.00000
    440       3.1813      2.00000
    441       3.2098      2.00000
    442       3.2237      2.00000
    443       3.2287      2.00000
    444       3.2334      2.00000
    445       3.2359      2.00000
    446       3.2460      2.00000
    447       3.2653      2.00000
    448       3.2821      2.00000
    449       3.3004      2.00000
    450       3.3076      2.00000
    451       3.3272      2.00000
    452       3.3623      2.00000
    453       3.3686      2.00000
    454       3.3930      2.00000
    455       3.4187      2.00000
    456       3.4353      2.00000
    457       3.4378      2.00000
    458       3.4435      2.00000
    459       3.4585      2.00000
    460       3.4774      2.00000
    461       3.5124      2.00000
    462       3.5278      2.00000
    463       3.5623      2.00000
    464       3.5745      2.00000
    465       3.6095      2.00000
    466       3.6169      2.00000
    467       3.6373      2.00000
    468       3.6424      2.00000
    469       3.6662      2.00000
    470       3.6764      2.00000
    471       3.6832      2.00000
    472       3.7272      2.00000
    473       3.7379      2.00000
    474       3.7442      2.00000
    475       3.7656      2.00000
    476       3.8259      2.00000
    477       3.8648      2.00000
    478       3.8824      2.00000
    479       3.9227      2.00000
    480       3.9428      2.00000
    481       3.9541      2.00000
    482       4.0297      2.00000
    483       4.0347      2.00000
    484       4.0438      2.00000
    485       4.0455      2.00000
    486       4.0954      2.00000
    487       4.2023      2.00000
    488       4.2049      2.00000
    489       4.2733      2.00000
    490       4.2754      2.00000
    491       4.3013      2.00000
    492       4.3377      2.00000
    493       4.3955      2.00000
    494       4.4209      2.00000
    495       4.4961      2.00000
    496       4.5029      2.00000
    497       4.5592      2.00000
    498       4.5801      2.00000
    499       4.5849      2.00000
    500       4.6151      2.00000
    501       4.6153      2.00000
    502       4.6273      2.00000
    503       4.6329      2.00000
    504       4.6345      2.00000
    505       4.6720      2.00000
    506       4.6872      2.00000
    507       4.6875      2.00000
    508       4.7307      2.00000
    509       4.7432      2.00000
    510       4.7950      2.00000
    511       4.8062      2.00000
    512       4.8191      2.00000
    513       4.8534      2.00000
    514       4.9011      2.00000
    515       4.9302      1.99997
    516       4.9629      0.64344
    517       4.9721      0.07731
    518       4.9825      0.00123
    519       5.0143      0.00000
    520       5.0509      0.00000
    521       5.0548      0.00000
    522       5.1504      0.00000
    523       5.1621      0.00000
    524       5.1775      0.00000
    525       5.1882      0.00000
    526       5.1928      0.00000
    527       5.2205      0.00000
    528       5.2815      0.00000
    529       5.3371      0.00000
    530       5.3482      0.00000
    531       5.3516      0.00000
    532       5.3878      0.00000
    533       5.4292      0.00000
    534       5.4631      0.00000
    535       5.4667      0.00000
    536       5.4852      0.00000
    537       5.4889      0.00000
    538       5.4934      0.00000
    539       5.4977      0.00000
    540       5.5895      0.00000
    541       5.6179      0.00000
    542       5.6423      0.00000
    543       5.6475      0.00000
    544       5.7154      0.00000
    545       5.7245      0.00000
    546       5.7359      0.00000
    547       5.7455      0.00000
    548       5.7527      0.00000
    549       5.7808      0.00000
    550       5.8142      0.00000
    551       5.8282      0.00000
    552       5.8366      0.00000
    553       5.8560      0.00000
    554       5.8633      0.00000
    555       5.8864      0.00000
    556       5.8892      0.00000
    557       5.9012      0.00000
    558       5.9338      0.00000
    559       5.9473      0.00000
    560       5.9634      0.00000
    561       5.9703      0.00000
    562       5.9800      0.00000
    563       6.0233      0.00000
    564       6.0278      0.00000
    565       6.0409      0.00000
    566       6.1043      0.00000
    567       6.1352      0.00000
    568       6.1670      0.00000
    569       6.1677      0.00000
    570       6.1788      0.00000
    571       6.1872      0.00000
    572       6.2109      0.00000
    573       6.2263      0.00000
    574       6.2314      0.00000
    575       6.3009      0.00000
    576       6.3014      0.00000
    577       6.3192      0.00000
    578       6.3271      0.00000
    579       6.3335      0.00000
    580       6.3678      0.00000
    581       6.3728      0.00000
    582       6.3829      0.00000
    583       6.3965      0.00000
    584       6.4005      0.00000
    585       6.4206      0.00000
    586       6.4256      0.00000
    587       6.4306      0.00000
    588       6.4364      0.00000
    589       6.5310      0.00000
    590       6.5462      0.00000
    591       6.5586      0.00000
    592       6.5735      0.00000
    593       6.5786      0.00000
    594       6.5920      0.00000
    595       6.5929      0.00000
    596       6.6452      0.00000
    597       6.6576      0.00000
    598       6.7284      0.00000
    599       6.7720      0.00000
    600       6.7825      0.00000
    601       6.9683      0.00000
    602       7.1527      0.00000
    603       7.1574      0.00000
    604       7.2713      0.00000
    605       7.3014      0.00000
    606       7.4922      0.00000
    607       7.6168      0.00000
    608       7.6322      0.00000
    609       7.6369      0.00000
    610       7.8060      0.00000
    611       8.3346      0.00000
    612       8.3575      0.00000
    613       8.3985      0.00000
    614       8.4192      0.00000
    615       8.4712      0.00000
    616       8.5444      0.00000
    617       8.5690      0.00000
    618       8.7981      0.00000

 k-point     4 :      -0.3333    0.3333    0.0000
  band No.  band energies     occupation 
      1     -68.3036      2.00000
      2     -68.2831      2.00000
      3     -68.2640      2.00000
      4     -68.2534      2.00000
      5     -68.2374      2.00000
      6     -68.2253      2.00000
      7     -68.2175      2.00000
      8     -68.2091      2.00000
      9     -68.2002      2.00000
     10     -68.1918      2.00000
     11     -68.1866      2.00000
     12     -68.1849      2.00000
     13     -68.1831      2.00000
     14     -68.1783      2.00000
     15     -68.1722      2.00000
     16     -68.1659      2.00000
     17     -68.1570      2.00000
     18     -68.1560      2.00000
     19     -68.1443      2.00000
     20     -68.1383      2.00000
     21     -68.1334      2.00000
     22     -68.1276      2.00000
     23     -68.1243      2.00000
     24     -68.1214      2.00000
     25     -68.1157      2.00000
     26     -68.1129      2.00000
     27     -68.1112      2.00000
     28     -68.1102      2.00000
     29     -68.1062      2.00000
     30     -68.1049      2.00000
     31     -68.0984      2.00000
     32     -68.0953      2.00000
     33     -67.8608      2.00000
     34     -67.8264      2.00000
     35     -67.7874      2.00000
     36     -67.7765      2.00000
     37     -67.7554      2.00000
     38     -67.7461      2.00000
     39     -67.7381      2.00000
     40     -67.7289      2.00000
     41     -67.7253      2.00000
     42     -67.7205      2.00000
     43     -67.7092      2.00000
     44     -67.7018      2.00000
     45     -67.7015      2.00000
     46     -67.7001      2.00000
     47     -67.6983      2.00000
     48     -67.6964      2.00000
     49     -67.6856      2.00000
     50     -67.6852      2.00000
     51     -67.6717      2.00000
     52     -67.6697      2.00000
     53     -67.6489      2.00000
     54     -67.6467      2.00000
     55     -67.6397      2.00000
     56     -67.6318      2.00000
     57     -67.6302      2.00000
     58     -67.6234      2.00000
     59     -67.6171      2.00000
     60     -67.6164      2.00000
     61     -67.6160      2.00000
     62     -67.6133      2.00000
     63     -67.6082      2.00000
     64     -67.6058      2.00000
     65     -38.6479      2.00000
     66     -38.6420      2.00000
     67     -38.6365      2.00000
     68     -38.6239      2.00000
     69     -38.6009      2.00000
     70     -38.5798      2.00000
     71     -38.5773      2.00000
     72     -38.5749      2.00000
     73     -38.5715      2.00000
     74     -38.5640      2.00000
     75     -38.5565      2.00000
     76     -38.5504      2.00000
     77     -38.5467      2.00000
     78     -38.5358      2.00000
     79     -38.5297      2.00000
     80     -38.5249      2.00000
     81     -38.5203      2.00000
     82     -38.5122      2.00000
     83     -38.5104      2.00000
     84     -38.5076      2.00000
     85     -38.5026      2.00000
     86     -38.4983      2.00000
     87     -38.4918      2.00000
     88     -38.4842      2.00000
     89     -38.4833      2.00000
     90     -38.4706      2.00000
     91     -38.4322      2.00000
     92     -38.4246      2.00000
     93     -38.3525      2.00000
     94     -38.3502      2.00000
     95     -38.3088      2.00000
     96     -38.3032      2.00000
     97     -38.3000      2.00000
     98     -38.2978      2.00000
     99     -38.2959      2.00000
    100     -38.2933      2.00000
    101     -38.2901      2.00000
    102     -38.2860      2.00000
    103     -38.2826      2.00000
    104     -38.2727      2.00000
    105     -38.2415      2.00000
    106     -38.2399      2.00000
    107     -38.2379      2.00000
    108     -38.2117      2.00000
    109     -38.2052      2.00000
    110     -38.1993      2.00000
    111     -38.1905      2.00000
    112     -38.1857      2.00000
    113     -38.1817      2.00000
    114     -38.1797      2.00000
    115     -38.1614      2.00000
    116     -38.1458      2.00000
    117     -38.1415      2.00000
    118     -38.1217      2.00000
    119     -38.1176      2.00000
    120     -38.1134      2.00000
    121     -38.1121      2.00000
    122     -38.1086      2.00000
    123     -38.1040      2.00000
    124     -38.1005      2.00000
    125     -38.0992      2.00000
    126     -38.0970      2.00000
    127     -38.0955      2.00000
    128     -38.0890      2.00000
    129     -38.0759      2.00000
    130     -38.0706      2.00000
    131     -38.0682      2.00000
    132     -38.0642      2.00000
    133     -38.0596      2.00000
    134     -38.0426      2.00000
    135     -38.0411      2.00000
    136     -38.0378      2.00000
    137     -38.0273      2.00000
    138     -38.0231      2.00000
    139     -38.0129      2.00000
    140     -38.0103      2.00000
    141     -38.0061      2.00000
    142     -37.9959      2.00000
    143     -37.9920      2.00000
    144     -37.9802      2.00000
    145     -37.9774      2.00000
    146     -37.9695      2.00000
    147     -37.9656      2.00000
    148     -37.9607      2.00000
    149     -37.9449      2.00000
    150     -37.9333      2.00000
    151     -37.9200      2.00000
    152     -37.9153      2.00000
    153     -37.9113      2.00000
    154     -37.9100      2.00000
    155     -37.9023      2.00000
    156     -37.8997      2.00000
    157     -37.8954      2.00000
    158     -37.8896      2.00000
    159     -37.8843      2.00000
    160     -37.8775      2.00000
    161     -37.8698      2.00000
    162     -37.8563      2.00000
    163     -37.8525      2.00000
    164     -37.8489      2.00000
    165     -37.8427      2.00000
    166     -37.8380      2.00000
    167     -37.8280      2.00000
    168     -37.8236      2.00000
    169     -37.8232      2.00000
    170     -37.8179      2.00000
    171     -37.8136      2.00000
    172     -37.8126      2.00000
    173     -37.8020      2.00000
    174     -37.7937      2.00000
    175     -37.7931      2.00000
    176     -37.7892      2.00000
    177     -37.7865      2.00000
    178     -37.7825      2.00000
    179     -37.7809      2.00000
    180     -37.7768      2.00000
    181     -37.7513      2.00000
    182     -37.7428      2.00000
    183     -37.7404      2.00000
    184     -37.7312      2.00000
    185     -37.7147      2.00000
    186     -37.7023      2.00000
    187     -37.6975      2.00000
    188     -37.6959      2.00000
    189     -37.6825      2.00000
    190     -37.6737      2.00000
    191     -37.6677      2.00000
    192     -37.6646      2.00000
    193     -37.6599      2.00000
    194     -37.6593      2.00000
    195     -37.6554      2.00000
    196     -37.6505      2.00000
    197     -37.6468      2.00000
    198     -37.6454      2.00000
    199     -37.6386      2.00000
    200     -37.6345      2.00000
    201     -37.6297      2.00000
    202     -37.6280      2.00000
    203     -37.6266      2.00000
    204     -37.6234      2.00000
    205     -37.6189      2.00000
    206     -37.6159      2.00000
    207     -37.6097      2.00000
    208     -37.6048      2.00000
    209     -37.5943      2.00000
    210     -37.5914      2.00000
    211     -37.5890      2.00000
    212     -37.5868      2.00000
    213     -37.5853      2.00000
    214     -37.5831      2.00000
    215     -37.5821      2.00000
    216     -37.5813      2.00000
    217     -37.5803      2.00000
    218     -37.5785      2.00000
    219     -37.5773      2.00000
    220     -37.5767      2.00000
    221     -37.5749      2.00000
    222     -37.5738      2.00000
    223     -37.5729      2.00000
    224     -37.5716      2.00000
    225     -37.5693      2.00000
    226     -37.5640      2.00000
    227     -37.5582      2.00000
    228     -37.5537      2.00000
    229     -37.5296      2.00000
    230     -37.5283      2.00000
    231     -37.5268      2.00000
    232     -37.5252      2.00000
    233     -37.5222      2.00000
    234     -37.5206      2.00000
    235     -37.5096      2.00000
    236     -37.5011      2.00000
    237     -37.4893      2.00000
    238     -37.4817      2.00000
    239     -37.4805      2.00000
    240     -37.4704      2.00000
    241     -37.4686      2.00000
    242     -37.4608      2.00000
    243     -37.4464      2.00000
    244     -37.4455      2.00000
    245     -37.4351      2.00000
    246     -37.4228      2.00000
    247     -37.4218      2.00000
    248     -37.4080      2.00000
    249     -37.4068      2.00000
    250     -37.4062      2.00000
    251     -37.3920      2.00000
    252     -37.3615      2.00000
    253     -37.3605      2.00000
    254     -37.3320      2.00000
    255     -37.3281      2.00000
    256     -37.2991      2.00000
    257     -12.0271      2.00000
    258      -3.2460      2.00000
    259      -2.2969      2.00000
    260      -1.8593      2.00000
    261      -1.6037      2.00000
    262      -1.0964      2.00000
    263      -1.0889      2.00000
    264      -1.0583      2.00000
    265      -0.9913      2.00000
    266      -0.8898      2.00000
    267      -0.8841      2.00000
    268      -0.8619      2.00000
    269      -0.8273      2.00000
    270      -0.8150      2.00000
    271      -0.7952      2.00000
    272      -0.6664      2.00000
    273      -0.6463      2.00000
    274      -0.6356      2.00000
    275      -0.6296      2.00000
    276      -0.6256      2.00000
    277      -0.5995      2.00000
    278      -0.5476      2.00000
    279      -0.5355      2.00000
    280      -0.5038      2.00000
    281      -0.4957      2.00000
    282      -0.3877      2.00000
    283      -0.3779      2.00000
    284      -0.3668      2.00000
    285      -0.3614      2.00000
    286      -0.2846      2.00000
    287      -0.2762      2.00000
    288      -0.2560      2.00000
    289      -0.2468      2.00000
    290      -0.2358      2.00000
    291      -0.2194      2.00000
    292      -0.1996      2.00000
    293      -0.1801      2.00000
    294      -0.1646      2.00000
    295      -0.1537      2.00000
    296      -0.1324      2.00000
    297      -0.1138      2.00000
    298      -0.1047      2.00000
    299      -0.0203      2.00000
    300      -0.0129      2.00000
    301      -0.0064      2.00000
    302       0.0291      2.00000
    303       0.0548      2.00000
    304       0.0853      2.00000
    305       0.1254      2.00000
    306       0.1932      2.00000
    307       0.2102      2.00000
    308       0.2320      2.00000
    309       0.2584      2.00000
    310       0.3022      2.00000
    311       0.3113      2.00000
    312       0.3568      2.00000
    313       0.3716      2.00000
    314       0.3995      2.00000
    315       0.4370      2.00000
    316       0.4740      2.00000
    317       0.5199      2.00000
    318       0.5322      2.00000
    319       0.5535      2.00000
    320       0.5670      2.00000
    321       0.5800      2.00000
    322       0.5910      2.00000
    323       0.6046      2.00000
    324       0.6233      2.00000
    325       0.6559      2.00000
    326       0.6748      2.00000
    327       0.6885      2.00000
    328       0.7290      2.00000
    329       0.7493      2.00000
    330       0.7883      2.00000
    331       0.8262      2.00000
    332       0.8416      2.00000
    333       0.8521      2.00000
    334       0.8767      2.00000
    335       0.8958      2.00000
    336       0.9063      2.00000
    337       0.9176      2.00000
    338       0.9277      2.00000
    339       0.9506      2.00000
    340       0.9649      2.00000
    341       0.9782      2.00000
    342       0.9912      2.00000
    343       1.0098      2.00000
    344       1.0299      2.00000
    345       1.0639      2.00000
    346       1.1323      2.00000
    347       1.1392      2.00000
    348       1.1427      2.00000
    349       1.1729      2.00000
    350       1.2486      2.00000
    351       1.2565      2.00000
    352       1.2905      2.00000
    353       1.3045      2.00000
    354       1.3203      2.00000
    355       1.3458      2.00000
    356       1.3727      2.00000
    357       1.4093      2.00000
    358       1.4759      2.00000
    359       1.4910      2.00000
    360       1.5602      2.00000
    361       1.5774      2.00000
    362       1.5882      2.00000
    363       1.5987      2.00000
    364       1.6344      2.00000
    365       1.6438      2.00000
    366       1.6543      2.00000
    367       1.6627      2.00000
    368       1.6841      2.00000
    369       1.7745      2.00000
    370       1.7906      2.00000
    371       1.8084      2.00000
    372       1.8418      2.00000
    373       1.9106      2.00000
    374       1.9279      2.00000
    375       2.0205      2.00000
    376       2.0302      2.00000
    377       2.0394      2.00000
    378       2.0587      2.00000
    379       2.0743      2.00000
    380       2.0974      2.00000
    381       2.1021      2.00000
    382       2.1135      2.00000
    383       2.1207      2.00000
    384       2.1812      2.00000
    385       2.1939      2.00000
    386       2.2228      2.00000
    387       2.2400      2.00000
    388       2.2427      2.00000
    389       2.2583      2.00000
    390       2.2651      2.00000
    391       2.2687      2.00000
    392       2.2783      2.00000
    393       2.2937      2.00000
    394       2.3051      2.00000
    395       2.3182      2.00000
    396       2.3215      2.00000
    397       2.3686      2.00000
    398       2.4151      2.00000
    399       2.4280      2.00000
    400       2.4559      2.00000
    401       2.4622      2.00000
    402       2.4679      2.00000
    403       2.4758      2.00000
    404       2.4860      2.00000
    405       2.5159      2.00000
    406       2.5615      2.00000
    407       2.6253      2.00000
    408       2.6377      2.00000
    409       2.6478      2.00000
    410       2.6693      2.00000
    411       2.6777      2.00000
    412       2.7014      2.00000
    413       2.7426      2.00000
    414       2.7555      2.00000
    415       2.7834      2.00000
    416       2.8237      2.00000
    417       2.8359      2.00000
    418       2.8501      2.00000
    419       2.8744      2.00000
    420       2.8983      2.00000
    421       2.9112      2.00000
    422       2.9179      2.00000
    423       2.9433      2.00000
    424       2.9509      2.00000
    425       2.9642      2.00000
    426       2.9928      2.00000
    427       3.0005      2.00000
    428       3.0107      2.00000
    429       3.0303      2.00000
    430       3.0469      2.00000
    431       3.0521      2.00000
    432       3.0625      2.00000
    433       3.0722      2.00000
    434       3.0936      2.00000
    435       3.1034      2.00000
    436       3.1099      2.00000
    437       3.1182      2.00000
    438       3.1322      2.00000
    439       3.1411      2.00000
    440       3.1886      2.00000
    441       3.1994      2.00000
    442       3.2147      2.00000
    443       3.2240      2.00000
    444       3.2332      2.00000
    445       3.2451      2.00000
    446       3.2486      2.00000
    447       3.2578      2.00000
    448       3.2796      2.00000
    449       3.2989      2.00000
    450       3.3172      2.00000
    451       3.3348      2.00000
    452       3.3681      2.00000
    453       3.3769      2.00000
    454       3.4017      2.00000
    455       3.4122      2.00000
    456       3.4322      2.00000
    457       3.4395      2.00000
    458       3.4414      2.00000
    459       3.4614      2.00000
    460       3.4841      2.00000
    461       3.4909      2.00000
    462       3.5158      2.00000
    463       3.5574      2.00000
    464       3.5700      2.00000
    465       3.5878      2.00000
    466       3.6265      2.00000
    467       3.6336      2.00000
    468       3.6362      2.00000
    469       3.6615      2.00000
    470       3.6853      2.00000
    471       3.7062      2.00000
    472       3.7265      2.00000
    473       3.7441      2.00000
    474       3.7663      2.00000
    475       3.7746      2.00000
    476       3.7998      2.00000
    477       3.8460      2.00000
    478       3.8707      2.00000
    479       3.8967      2.00000
    480       3.9521      2.00000
    481       3.9846      2.00000
    482       4.0261      2.00000
    483       4.0341      2.00000
    484       4.0432      2.00000
    485       4.0602      2.00000
    486       4.0860      2.00000
    487       4.1960      2.00000
    488       4.2386      2.00000
    489       4.2621      2.00000
    490       4.2844      2.00000
    491       4.2988      2.00000
    492       4.3199      2.00000
    493       4.3970      2.00000
    494       4.4101      2.00000
    495       4.4903      2.00000
    496       4.5051      2.00000
    497       4.5526      2.00000
    498       4.5630      2.00000
    499       4.5817      2.00000
    500       4.6060      2.00000
    501       4.6199      2.00000
    502       4.6306      2.00000
    503       4.6344      2.00000
    504       4.6496      2.00000
    505       4.6591      2.00000
    506       4.6800      2.00000
    507       4.7060      2.00000
    508       4.7200      2.00000
    509       4.7447      2.00000
    510       4.7690      2.00000
    511       4.8084      2.00000
    512       4.8153      2.00000
    513       4.8490      2.00000
    514       4.8974      2.00000
    515       4.9418      1.98847
    516       4.9594      1.02292
    517       4.9688      0.19501
    518       4.9849      0.00036
    519       4.9929      0.00000
    520       5.0530      0.00000
    521       5.0649      0.00000
    522       5.1271      0.00000
    523       5.1676      0.00000
    524       5.1753      0.00000
    525       5.1869      0.00000
    526       5.1942      0.00000
    527       5.2012      0.00000
    528       5.3213      0.00000
    529       5.3348      0.00000
    530       5.3472      0.00000
    531       5.3739      0.00000
    532       5.3884      0.00000
    533       5.4361      0.00000
    534       5.4639      0.00000
    535       5.4670      0.00000
    536       5.4748      0.00000
    537       5.4875      0.00000
    538       5.5040      0.00000
    539       5.5233      0.00000
    540       5.5702      0.00000
    541       5.6080      0.00000
    542       5.6497      0.00000
    543       5.6574      0.00000
    544       5.7171      0.00000
    545       5.7267      0.00000
    546       5.7401      0.00000
    547       5.7495      0.00000
    548       5.7773      0.00000
    549       5.7863      0.00000
    550       5.8017      0.00000
    551       5.8255      0.00000
    552       5.8393      0.00000
    553       5.8517      0.00000
    554       5.8623      0.00000
    555       5.8816      0.00000
    556       5.8888      0.00000
    557       5.9010      0.00000
    558       5.9362      0.00000
    559       5.9452      0.00000
    560       5.9592      0.00000
    561       5.9718      0.00000
    562       5.9842      0.00000
    563       6.0056      0.00000
    564       6.0336      0.00000
    565       6.0366      0.00000
    566       6.0947      0.00000
    567       6.1510      0.00000
    568       6.1617      0.00000
    569       6.1742      0.00000
    570       6.1773      0.00000
    571       6.1781      0.00000
    572       6.1947      0.00000
    573       6.2165      0.00000
    574       6.2375      0.00000
    575       6.2617      0.00000
    576       6.2962      0.00000
    577       6.3101      0.00000
    578       6.3250      0.00000
    579       6.3332      0.00000
    580       6.3556      0.00000
    581       6.3689      0.00000
    582       6.3795      0.00000
    583       6.3949      0.00000
    584       6.4164      0.00000
    585       6.4196      0.00000
    586       6.4259      0.00000
    587       6.4350      0.00000
    588       6.4404      0.00000
    589       6.4969      0.00000
    590       6.5495      0.00000
    591       6.5607      0.00000
    592       6.5737      0.00000
    593       6.5784      0.00000
    594       6.5889      0.00000
    595       6.6011      0.00000
    596       6.6389      0.00000
    597       6.6540      0.00000
    598       6.6841      0.00000
    599       6.7518      0.00000
    600       6.9319      0.00000
    601       6.9700      0.00000
    602       7.1556      0.00000
    603       7.1627      0.00000
    604       7.2068      0.00000
    605       7.3185      0.00000
    606       7.5754      0.00000
    607       7.6276      0.00000
    608       7.6420      0.00000
    609       7.7234      0.00000
    610       7.7895      0.00000
    611       8.3250      0.00000
    612       8.3487      0.00000
    613       8.4040      0.00000
    614       8.4244      0.00000
    615       8.4562      0.00000
    616       8.4699      0.00000
    617       8.5245      0.00000
    618       8.8185      0.00000

 k-point     5 :       0.3333    0.3333    0.0000
  band No.  band energies     occupation 
      1     -68.2957      2.00000
      2     -68.2878      2.00000
      3     -68.2793      2.00000
      4     -68.2379      2.00000
      5     -68.2349      2.00000
      6     -68.2329      2.00000
      7     -68.2073      2.00000
      8     -68.2055      2.00000
      9     -68.2039      2.00000
     10     -68.1944      2.00000
     11     -68.1928      2.00000
     12     -68.1885      2.00000
     13     -68.1790      2.00000
     14     -68.1764      2.00000
     15     -68.1722      2.00000
     16     -68.1677      2.00000
     17     -68.1672      2.00000
     18     -68.1480      2.00000
     19     -68.1408      2.00000
     20     -68.1380      2.00000
     21     -68.1341      2.00000
     22     -68.1276      2.00000
     23     -68.1225      2.00000
     24     -68.1205      2.00000
     25     -68.1190      2.00000
     26     -68.1162      2.00000
     27     -68.1103      2.00000
     28     -68.1083      2.00000
     29     -68.1074      2.00000
     30     -68.1025      2.00000
     31     -68.0998      2.00000
     32     -68.0952      2.00000
     33     -67.8607      2.00000
     34     -67.8264      2.00000
     35     -67.7874      2.00000
     36     -67.7771      2.00000
     37     -67.7567      2.00000
     38     -67.7470      2.00000
     39     -67.7349      2.00000
     40     -67.7284      2.00000
     41     -67.7230      2.00000
     42     -67.7202      2.00000
     43     -67.7118      2.00000
     44     -67.7057      2.00000
     45     -67.7000      2.00000
     46     -67.6977      2.00000
     47     -67.6943      2.00000
     48     -67.6925      2.00000
     49     -67.6897      2.00000
     50     -67.6890      2.00000
     51     -67.6853      2.00000
     52     -67.6535      2.00000
     53     -67.6513      2.00000
     54     -67.6480      2.00000
     55     -67.6322      2.00000
     56     -67.6291      2.00000
     57     -67.6278      2.00000
     58     -67.6274      2.00000
     59     -67.6261      2.00000
     60     -67.6241      2.00000
     61     -67.6124      2.00000
     62     -67.6096      2.00000
     63     -67.6091      2.00000
     64     -67.6038      2.00000
     65     -38.6266      2.00000
     66     -38.6166      2.00000
     67     -38.6126      2.00000
     68     -38.6055      2.00000
     69     -38.6044      2.00000
     70     -38.5986      2.00000
     71     -38.5746      2.00000
     72     -38.5693      2.00000
     73     -38.5659      2.00000
     74     -38.5623      2.00000
     75     -38.5558      2.00000
     76     -38.5522      2.00000
     77     -38.5472      2.00000
     78     -38.5424      2.00000
     79     -38.5400      2.00000
     80     -38.5351      2.00000
     81     -38.5302      2.00000
     82     -38.5262      2.00000
     83     -38.5253      2.00000
     84     -38.5195      2.00000
     85     -38.5152      2.00000
     86     -38.5114      2.00000
     87     -38.5059      2.00000
     88     -38.4952      2.00000
     89     -38.4828      2.00000
     90     -38.4581      2.00000
     91     -38.4252      2.00000
     92     -38.3937      2.00000
     93     -38.3889      2.00000
     94     -38.3873      2.00000
     95     -38.3020      2.00000
     96     -38.2968      2.00000
     97     -38.2961      2.00000
     98     -38.2923      2.00000
     99     -38.2911      2.00000
    100     -38.2893      2.00000
    101     -38.2793      2.00000
    102     -38.2772      2.00000
    103     -38.2753      2.00000
    104     -38.2320      2.00000
    105     -38.2320      2.00000
    106     -38.2307      2.00000
    107     -38.2277      2.00000
    108     -38.2256      2.00000
    109     -38.2233      2.00000
    110     -38.2201      2.00000
    111     -38.2186      2.00000
    112     -38.2176      2.00000
    113     -38.2154      2.00000
    114     -38.1631      2.00000
    115     -38.1520      2.00000
    116     -38.1359      2.00000
    117     -38.1328      2.00000
    118     -38.1324      2.00000
    119     -38.1302      2.00000
    120     -38.1258      2.00000
    121     -38.1146      2.00000
    122     -38.1093      2.00000
    123     -38.1066      2.00000
    124     -38.1055      2.00000
    125     -38.0812      2.00000
    126     -38.0784      2.00000
    127     -38.0753      2.00000
    128     -38.0703      2.00000
    129     -38.0688      2.00000
    130     -38.0651      2.00000
    131     -38.0609      2.00000
    132     -38.0589      2.00000
    133     -38.0540      2.00000
    134     -38.0431      2.00000
    135     -38.0386      2.00000
    136     -38.0382      2.00000
    137     -38.0347      2.00000
    138     -38.0319      2.00000
    139     -38.0250      2.00000
    140     -37.9883      2.00000
    141     -37.9849      2.00000
    142     -37.9768      2.00000
    143     -37.9640      2.00000
    144     -37.9495      2.00000
    145     -37.9470      2.00000
    146     -37.9469      2.00000
    147     -37.9433      2.00000
    148     -37.9424      2.00000
    149     -37.9415      2.00000
    150     -37.9385      2.00000
    151     -37.9350      2.00000
    152     -37.9304      2.00000
    153     -37.9224      2.00000
    154     -37.9210      2.00000
    155     -37.9171      2.00000
    156     -37.9099      2.00000
    157     -37.9064      2.00000
    158     -37.8988      2.00000
    159     -37.8930      2.00000
    160     -37.8878      2.00000
    161     -37.8796      2.00000
    162     -37.8774      2.00000
    163     -37.8685      2.00000
    164     -37.8672      2.00000
    165     -37.8639      2.00000
    166     -37.8630      2.00000
    167     -37.8411      2.00000
    168     -37.8238      2.00000
    169     -37.8199      2.00000
    170     -37.8175      2.00000
    171     -37.8118      2.00000
    172     -37.8105      2.00000
    173     -37.8094      2.00000
    174     -37.7943      2.00000
    175     -37.7905      2.00000
    176     -37.7837      2.00000
    177     -37.7821      2.00000
    178     -37.7809      2.00000
    179     -37.7802      2.00000
    180     -37.7764      2.00000
    181     -37.7692      2.00000
    182     -37.7532      2.00000
    183     -37.7514      2.00000
    184     -37.7456      2.00000
    185     -37.7402      2.00000
    186     -37.7193      2.00000
    187     -37.7048      2.00000
    188     -37.6717      2.00000
    189     -37.6685      2.00000
    190     -37.6669      2.00000
    191     -37.6659      2.00000
    192     -37.6615      2.00000
    193     -37.6596      2.00000
    194     -37.6553      2.00000
    195     -37.6523      2.00000
    196     -37.6510      2.00000
    197     -37.6455      2.00000
    198     -37.6421      2.00000
    199     -37.6401      2.00000
    200     -37.6382      2.00000
    201     -37.6381      2.00000
    202     -37.6331      2.00000
    203     -37.6317      2.00000
    204     -37.6294      2.00000
    205     -37.6242      2.00000
    206     -37.6171      2.00000
    207     -37.6107      2.00000
    208     -37.5907      2.00000
    209     -37.5897      2.00000
    210     -37.5839      2.00000
    211     -37.5830      2.00000
    212     -37.5826      2.00000
    213     -37.5815      2.00000
    214     -37.5808      2.00000
    215     -37.5794      2.00000
    216     -37.5787      2.00000
    217     -37.5780      2.00000
    218     -37.5760      2.00000
    219     -37.5750      2.00000
    220     -37.5741      2.00000
    221     -37.5711      2.00000
    222     -37.5691      2.00000
    223     -37.5655      2.00000
    224     -37.5620      2.00000
    225     -37.5481      2.00000
    226     -37.5472      2.00000
    227     -37.5458      2.00000
    228     -37.5449      2.00000
    229     -37.5445      2.00000
    230     -37.5412      2.00000
    231     -37.5381      2.00000
    232     -37.5272      2.00000
    233     -37.5185      2.00000
    234     -37.5102      2.00000
    235     -37.4998      2.00000
    236     -37.4938      2.00000
    237     -37.4903      2.00000
    238     -37.4824      2.00000
    239     -37.4502      2.00000
    240     -37.4481      2.00000
    241     -37.4476      2.00000
    242     -37.4463      2.00000
    243     -37.4453      2.00000
    244     -37.4444      2.00000
    245     -37.4205      2.00000
    246     -37.4188      2.00000
    247     -37.4182      2.00000
    248     -37.4180      2.00000
    249     -37.4150      2.00000
    250     -37.4107      2.00000
    251     -37.4094      2.00000
    252     -37.4086      2.00000
    253     -37.4083      2.00000
    254     -37.3226      2.00000
    255     -37.3213      2.00000
    256     -37.3193      2.00000
    257     -12.0271      2.00000
    258      -3.2461      2.00000
    259      -1.9941      2.00000
    260      -1.8266      2.00000
    261      -1.8239      2.00000
    262      -1.6570      2.00000
    263      -0.7470      2.00000
    264      -0.7427      2.00000
    265      -0.7395      2.00000
    266      -0.7318      2.00000
    267      -0.7250      2.00000
    268      -0.7209      2.00000
    269      -0.6866      2.00000
    270      -0.6845      2.00000
    271      -0.6584      2.00000
    272      -0.6353      2.00000
    273      -0.6220      2.00000
    274      -0.6129      2.00000
    275      -0.6058      2.00000
    276      -0.6016      2.00000
    277      -0.5966      2.00000
    278      -0.5919      2.00000
    279      -0.5842      2.00000
    280      -0.5653      2.00000
    281      -0.4342      2.00000
    282      -0.4310      2.00000
    283      -0.4302      2.00000
    284      -0.4211      2.00000
    285      -0.4178      2.00000
    286      -0.4078      2.00000
    287      -0.3696      2.00000
    288      -0.3621      2.00000
    289      -0.3589      2.00000
    290      -0.3538      2.00000
    291      -0.3507      2.00000
    292      -0.3487      2.00000
    293      -0.3383      2.00000
    294      -0.3353      2.00000
    295      -0.3047      2.00000
    296      -0.2563      2.00000
    297      -0.2510      2.00000
    298      -0.2464      2.00000
    299      -0.1986      2.00000
    300       0.0315      2.00000
    301       0.0463      2.00000
    302       0.0510      2.00000
    303       0.1406      2.00000
    304       0.1472      2.00000
    305       0.1845      2.00000
    306       0.2525      2.00000
    307       0.3291      2.00000
    308       0.3425      2.00000
    309       0.3516      2.00000
    310       0.3561      2.00000
    311       0.3645      2.00000
    312       0.3671      2.00000
    313       0.3706      2.00000
    314       0.3938      2.00000
    315       0.4230      2.00000
    316       0.4847      2.00000
    317       0.4990      2.00000
    318       0.5117      2.00000
    319       0.5177      2.00000
    320       0.5787      2.00000
    321       0.6256      2.00000
    322       0.6326      2.00000
    323       0.6421      2.00000
    324       0.6842      2.00000
    325       0.6894      2.00000
    326       0.6914      2.00000
    327       0.7014      2.00000
    328       0.7054      2.00000
    329       0.7088      2.00000
    330       0.7213      2.00000
    331       0.7337      2.00000
    332       0.7655      2.00000
    333       0.8018      2.00000
    334       0.8116      2.00000
    335       0.8131      2.00000
    336       0.8263      2.00000
    337       0.8516      2.00000
    338       0.8566      2.00000
    339       0.8626      2.00000
    340       0.8671      2.00000
    341       0.8732      2.00000
    342       0.8904      2.00000
    343       0.8929      2.00000
    344       0.9556      2.00000
    345       0.9927      2.00000
    346       1.1378      2.00000
    347       1.2289      2.00000
    348       1.3168      2.00000
    349       1.3265      2.00000
    350       1.3403      2.00000
    351       1.3550      2.00000
    352       1.3852      2.00000
    353       1.3976      2.00000
    354       1.4028      2.00000
    355       1.4048      2.00000
    356       1.4158      2.00000
    357       1.4257      2.00000
    358       1.4523      2.00000
    359       1.4599      2.00000
    360       1.4759      2.00000
    361       1.5471      2.00000
    362       1.5547      2.00000
    363       1.5608      2.00000
    364       1.5696      2.00000
    365       1.5895      2.00000
    366       1.6158      2.00000
    367       1.7106      2.00000
    368       1.7130      2.00000
    369       1.7151      2.00000
    370       1.8413      2.00000
    371       1.8446      2.00000
    372       1.8669      2.00000
    373       1.8731      2.00000
    374       1.8786      2.00000
    375       1.8869      2.00000
    376       1.9667      2.00000
    377       1.9853      2.00000
    378       2.0184      2.00000
    379       2.0737      2.00000
    380       2.0801      2.00000
    381       2.0895      2.00000
    382       2.0916      2.00000
    383       2.1034      2.00000
    384       2.1178      2.00000
    385       2.1229      2.00000
    386       2.1379      2.00000
    387       2.1645      2.00000
    388       2.2213      2.00000
    389       2.2290      2.00000
    390       2.2572      2.00000
    391       2.2750      2.00000
    392       2.2818      2.00000
    393       2.2966      2.00000
    394       2.3093      2.00000
    395       2.3280      2.00000
    396       2.3353      2.00000
    397       2.3482      2.00000
    398       2.3719      2.00000
    399       2.5527      2.00000
    400       2.5624      2.00000
    401       2.5811      2.00000
    402       2.5895      2.00000
    403       2.5977      2.00000
    404       2.6029      2.00000
    405       2.6085      2.00000
    406       2.6199      2.00000
    407       2.6261      2.00000
    408       2.6287      2.00000
    409       2.6353      2.00000
    410       2.6418      2.00000
    411       2.6739      2.00000
    412       2.6777      2.00000
    413       2.6801      2.00000
    414       2.6933      2.00000
    415       2.7008      2.00000
    416       2.7198      2.00000
    417       2.7709      2.00000
    418       2.7820      2.00000
    419       2.8039      2.00000
    420       2.8370      2.00000
    421       2.8533      2.00000
    422       2.8600      2.00000
    423       2.8671      2.00000
    424       2.8848      2.00000
    425       2.8974      2.00000
    426       2.8986      2.00000
    427       2.9069      2.00000
    428       2.9112      2.00000
    429       2.9346      2.00000
    430       2.9723      2.00000
    431       2.9760      2.00000
    432       2.9818      2.00000
    433       2.9954      2.00000
    434       3.0076      2.00000
    435       3.0322      2.00000
    436       3.1550      2.00000
    437       3.1647      2.00000
    438       3.1739      2.00000
    439       3.1748      2.00000
    440       3.1782      2.00000
    441       3.1833      2.00000
    442       3.1865      2.00000
    443       3.1943      2.00000
    444       3.2018      2.00000
    445       3.2166      2.00000
    446       3.2540      2.00000
    447       3.2705      2.00000
    448       3.3136      2.00000
    449       3.3403      2.00000
    450       3.3531      2.00000
    451       3.3584      2.00000
    452       3.3781      2.00000
    453       3.3864      2.00000
    454       3.4694      2.00000
    455       3.4743      2.00000
    456       3.4760      2.00000
    457       3.4917      2.00000
    458       3.4968      2.00000
    459       3.5298      2.00000
    460       3.5672      2.00000
    461       3.5744      2.00000
    462       3.5764      2.00000
    463       3.5826      2.00000
    464       3.6075      2.00000
    465       3.6496      2.00000
    466       3.7603      2.00000
    467       3.7825      2.00000
    468       3.7911      2.00000
    469       3.8089      2.00000
    470       3.8250      2.00000
    471       3.8304      2.00000
    472       3.8381      2.00000
    473       3.9616      2.00000
    474       3.9736      2.00000
    475       3.9812      2.00000
    476       4.0121      2.00000
    477       4.0135      2.00000
    478       4.0263      2.00000
    479       4.0328      2.00000
    480       4.0342      2.00000
    481       4.0438      2.00000
    482       4.0535      2.00000
    483       4.0912      2.00000
    484       4.1884      2.00000
    485       4.2174      2.00000
    486       4.2298      2.00000
    487       4.2825      2.00000
    488       4.3506      2.00000
    489       4.3840      2.00000
    490       4.3917      2.00000
    491       4.4048      2.00000
    492       4.4115      2.00000
    493       4.4181      2.00000
    494       4.4243      2.00000
    495       4.4596      2.00000
    496       4.4702      2.00000
    497       4.4807      2.00000
    498       4.4885      2.00000
    499       4.4956      2.00000
    500       4.5008      2.00000
    501       4.5087      2.00000
    502       4.5116      2.00000
    503       4.5135      2.00000
    504       4.5327      2.00000
    505       4.5431      2.00000
    506       4.6516      2.00000
    507       4.7320      2.00000
    508       4.7445      2.00000
    509       4.7545      2.00000
    510       4.7600      2.00000
    511       4.7934      2.00000
    512       4.8388      2.00000
    513       4.8542      2.00000
    514       4.8615      2.00000
    515       4.8720      2.00000
    516       4.8768      2.00000
    517       4.9084      2.00000
    518       5.0443      0.00000
    519       5.0711      0.00000
    520       5.0870      0.00000
    521       5.1215      0.00000
    522       5.1446      0.00000
    523       5.1525      0.00000
    524       5.2274      0.00000
    525       5.3680      0.00000
    526       5.3745      0.00000
    527       5.3776      0.00000
    528       5.3802      0.00000
    529       5.3831      0.00000
    530       5.3856      0.00000
    531       5.4378      0.00000
    532       5.4496      0.00000
    533       5.4534      0.00000
    534       5.4811      0.00000
    535       5.5148      0.00000
    536       5.5461      0.00000
    537       5.5562      0.00000
    538       5.5662      0.00000
    539       5.5706      0.00000
    540       5.6228      0.00000
    541       5.6851      0.00000
    542       5.7103      0.00000
    543       5.7134      0.00000
    544       5.7261      0.00000
    545       5.7305      0.00000
    546       5.7389      0.00000
    547       5.7443      0.00000
    548       5.7660      0.00000
    549       5.7737      0.00000
    550       5.7775      0.00000
    551       5.7800      0.00000
    552       5.8002      0.00000
    553       5.8769      0.00000
    554       5.8846      0.00000
    555       5.8923      0.00000
    556       5.9030      0.00000
    557       5.9166      0.00000
    558       5.9176      0.00000
    559       5.9291      0.00000
    560       5.9313      0.00000
    561       5.9464      0.00000
    562       5.9599      0.00000
    563       5.9812      0.00000
    564       5.9832      0.00000
    565       6.0042      0.00000
    566       6.0162      0.00000
    567       6.0391      0.00000
    568       6.0486      0.00000
    569       6.0668      0.00000
    570       6.0891      0.00000
    571       6.0984      0.00000
    572       6.1123      0.00000
    573       6.1156      0.00000
    574       6.1184      0.00000
    575       6.1192      0.00000
    576       6.1751      0.00000
    577       6.2155      0.00000
    578       6.2300      0.00000
    579       6.2556      0.00000
    580       6.2613      0.00000
    581       6.2785      0.00000
    582       6.3179      0.00000
    583       6.3520      0.00000
    584       6.3619      0.00000
    585       6.3672      0.00000
    586       6.3772      0.00000
    587       6.3861      0.00000
    588       6.4768      0.00000
    589       6.5192      0.00000
    590       6.5356      0.00000
    591       6.5436      0.00000
    592       6.5961      0.00000
    593       6.6218      0.00000
    594       6.6280      0.00000
    595       6.6875      0.00000
    596       6.9527      0.00000
    597       6.9654      0.00000
    598       6.9707      0.00000
    599       6.9735      0.00000
    600       6.9821      0.00000
    601       7.0102      0.00000
    602       7.1687      0.00000
    603       7.2162      0.00000
    604       7.2371      0.00000
    605       7.2536      0.00000
    606       7.2707      0.00000
    607       7.2728      0.00000
    608       7.2927      0.00000
    609       7.3129      0.00000
    610       7.3472      0.00000
    611       7.3790      0.00000
    612       7.4932      0.00000
    613       7.6877      0.00000
    614       8.2816      0.00000
    615       8.2985      0.00000
    616       8.3276      0.00000
    617       8.4047      0.00000
    618       8.6799      0.00000


--------------------------------------------------------------------------------------------------------


 soft charge-density along one line, spin component           1
         0         1         2         3         4         5         6         7         8         9
 total charge-density along one line
 
 pseudopotential strength for first ion, spin component:           1
-20.882   0.000  -0.001  11.326  -0.000   0.001  -0.000   0.020
  0.000 -20.902   0.001  -0.000  11.341  -0.001  -0.000   0.000
 -0.001   0.001 -20.882   0.001  -0.001  11.327   0.001  -0.000
 11.326  -0.000   0.001   7.469   0.000  -0.000   0.000  -0.009
 -0.000  11.341  -0.001   0.000   7.466   0.000   0.000  -0.000
  0.001  -0.001  11.327  -0.000   0.000   7.469  -0.001   0.000
 -0.000  -0.000   0.001   0.000   0.000  -0.001  -2.162   0.000
  0.020   0.000  -0.000  -0.009  -0.000   0.000   0.000  -2.166
 -0.000   0.017   0.000   0.000  -0.009  -0.000   0.000   0.000
 -0.000  -0.000   0.020   0.000   0.000  -0.009  -0.000  -0.001
  0.001   0.000  -0.000  -0.000  -0.000   0.000   0.000  -0.000
 -0.000  -0.000   0.002   0.000   0.000  -0.001  -2.295   0.000
  0.023   0.001  -0.000  -0.010  -0.000   0.000   0.000  -2.299
 -0.000   0.019   0.000   0.000  -0.010  -0.000   0.000   0.000
 -0.000  -0.000   0.023   0.000   0.000  -0.011  -0.000  -0.001
  0.001   0.000  -0.000  -0.000  -0.000   0.000   0.000  -0.000
  0.001   0.036  -0.000  -0.001  -0.016   0.000  -0.001   0.000
 -0.000  -0.004   0.000   0.000  -0.003  -0.000   0.000  -0.000
 total augmentation occupancy for first ion, spin component:           1
  1.993  -0.000   0.000  -0.022  -0.000  -0.000  -0.000   0.005  -0.000  -0.000  -0.003   0.000  -0.007   0.000   0.000   0.003
 -0.000   1.994  -0.000  -0.000  -0.018  -0.000  -0.000   0.001  -0.004  -0.000   0.000   0.000  -0.001  -0.007   0.000  -0.000
  0.000  -0.000   1.993  -0.000  -0.000  -0.022  -0.002  -0.000   0.000   0.005  -0.000   0.002   0.000  -0.000  -0.007   0.000
 -0.022  -0.000  -0.000   0.087   0.000   0.000   0.000   0.114   0.000   0.000  -0.025   0.000  -0.103   0.000   0.000   0.018
 -0.000  -0.018  -0.000   0.000   0.052   0.000   0.000   0.000   0.202  -0.000   0.000  -0.000  -0.001  -0.118   0.000   0.000
 -0.000  -0.000  -0.022   0.000   0.000   0.087  -0.025   0.000  -0.000   0.114   0.000   0.018   0.001  -0.000  -0.104  -0.000
 -0.000  -0.000  -0.002   0.000   0.000  -0.025   4.464  -0.000   0.001  -0.224  -0.000  -2.111   0.000  -0.001   0.123   0.000
  0.005   0.001  -0.000   0.114   0.000   0.000  -0.000   3.624   0.001  -0.001  -0.223   0.000  -1.563  -0.001   0.001   0.122
 -0.000  -0.004   0.000   0.000   0.202  -0.000   0.001   0.001   4.026   0.000   0.000  -0.000  -0.001  -1.873  -0.000  -0.000
 -0.000  -0.000   0.005   0.000  -0.000   0.114  -0.224  -0.001   0.000   3.622   0.000   0.123   0.001  -0.000  -1.562   0.000
 -0.003   0.000  -0.000  -0.025   0.000   0.000  -0.000  -0.223   0.000   0.000   4.464   0.000   0.122  -0.000   0.000  -2.111
  0.000   0.000   0.002   0.000  -0.000   0.018  -2.111   0.000  -0.000   0.123   0.000   1.248  -0.000   0.000  -0.044   0.001
 -0.007  -0.001   0.000  -0.103  -0.001   0.001   0.000  -1.563  -0.001   0.001   0.122  -0.000   0.996   0.003  -0.003  -0.043
  0.000  -0.007  -0.000   0.000  -0.118  -0.000  -0.001  -0.001  -1.873  -0.000  -0.000   0.000   0.003   1.135   0.001  -0.000
  0.000   0.000  -0.007   0.000   0.000  -0.104   0.123   0.001  -0.000  -1.562   0.000  -0.044  -0.003   0.001   0.994   0.000
  0.003  -0.000   0.000   0.018   0.000  -0.000   0.000   0.122  -0.000   0.000  -2.111   0.001  -0.043  -0.000   0.000   1.250
  0.000  -0.001  -0.000   0.000  -0.002  -0.000  -0.001  -0.000   0.003   0.000  -0.000   0.001   0.000  -0.001  -0.000   0.000
  0.000  -0.012   0.000   0.000   0.077  -0.000   0.001  -0.000  -0.305  -0.001  -0.000  -0.002   0.002   0.232   0.002  -0.000


------------------------ aborting loop because EDIFF is reached ----------------------------------------





 total charge

# of ion       s       p       d       tot
------------------------------------------
    1        2.212   6.044   5.304  13.559
    2        2.211   6.044   5.304  13.559
    3        2.211   6.044   5.305  13.559
    4        2.211   6.044   5.303  13.558
    5        2.212   6.044   5.304  13.559
    6        2.211   6.044   5.304  13.558
    7        2.211   6.044   5.303  13.558
    8        2.211   6.044   5.305  13.559
    9        2.212   6.044   5.303  13.559
   10        2.211   6.044   5.305  13.559
   11        2.211   6.044   5.303  13.558
   12        2.211   6.044   5.303  13.558
   13        2.211   6.044   5.303  13.558
   14        2.211   6.044   5.305  13.559
   15        2.212   6.044   5.303  13.558
   16        2.212   6.044   5.303  13.558
   17        2.219   6.103   5.276  13.597
   18        2.219   6.103   5.276  13.597
   19        2.218   6.103   5.274  13.595
   20        2.218   6.102   5.271  13.590
   21        2.218   6.102   5.275  13.595
   22        2.218   6.102   5.275  13.595
   23        2.218   6.103   5.274  13.595
   24        2.218   6.102   5.275  13.596
   25        2.219   6.103   5.274  13.595
   26        2.219   6.102   5.275  13.596
   27        2.218   6.102   5.274  13.594
   28        2.219   6.102   5.275  13.596
   29        2.219   6.102   5.275  13.596
   30        2.219   6.103   5.274  13.595
   31        2.218   6.103   5.274  13.594
   32        2.219   6.102   5.275  13.596
   33        2.223   6.112   5.286  13.620
   34        2.224   6.114   5.285  13.623
   35        2.223   6.112   5.285  13.620
   36        2.222   6.109   5.282  13.612
   37        2.223   6.112   5.286  13.620
   38        2.222   6.111   5.286  13.619
   39        2.222   6.109   5.282  13.612
   40        2.223   6.112   5.285  13.620
   41        2.223   6.111   5.285  13.619
   42        2.223   6.109   5.290  13.621
   43        2.223   6.112   5.285  13.620
   44        2.223   6.112   5.285  13.620
   45        2.220   6.108   5.272  13.600
   46        2.223   6.109   5.290  13.621
   47        2.224   6.112   5.284  13.620
   48        2.224   6.112   5.284  13.620
   49        2.219   6.054   5.319  13.592
   50        2.219   6.054   5.319  13.592
   51        2.217   6.050   5.321  13.588
   52        2.217   6.051   5.345  13.613
   53        2.219   6.055   5.317  13.591
   54        2.219   6.055   5.317  13.591
   55        2.217   6.050   5.321  13.588
   56        2.217   6.051   5.319  13.587
   57        2.217   6.050   5.318  13.586
   58        2.205   6.076   5.286  13.566
   59        2.217   6.051   5.319  13.588
   60        2.218   6.050   5.320  13.589
   61        2.205   6.076   5.286  13.566
   62        2.217   6.050   5.318  13.586
   63        2.217   6.049   5.347  13.613
   64        2.218   6.050   5.320  13.589
   65        1.216   2.629   0.000   3.845
   66        0.633   0.082   0.000   0.716
   67        0.635   0.082   0.000   0.717
--------------------------------------------------
tot        144.383 391.776 338.895 875.054
 
    CHARGE:  cpu time      0.4638: real time      0.4661
    FORLOC:  cpu time      0.0166: real time      0.0166
    FORNL :  cpu time      2.6409: real time      2.6560
    STRESS:  cpu time      8.1484: real time      8.1930
    FORCOR:  cpu time      0.0690: real time      0.0695
    FORHAR:  cpu time      0.0293: real time      0.0295
    MIXING:  cpu time      0.0076: real time      0.0076
    OFIELD:  cpu time      0.0001: real time      0.0001

  FORCE on cell =-STRESS in cart. coord.  units (eV):
  Direction    XX          YY          ZZ          XY          YZ          ZX
  --------------------------------------------------------------------------------------
  Alpha Z  3956.67891  3956.67891  3956.67891
  Ewald  325483.02998325433.50141************     0.28018     5.52549     0.02627
  Hartree369150.72034369102.06913************     0.12967     3.41314     0.02285
  E(xc)   -5604.89516 -5604.64118 -5616.24912     0.00038    -0.00699    -0.00017
  Local  ************************741573.92561    -0.39665    -7.98442    -0.06274
  n-local  2354.46191  2355.16443  2313.60539     0.00399    -0.02083     0.00237
  augment  5363.57179  5363.57736  5348.50225     0.00050    -0.27304     0.00074
  Kinetic 20415.40038 20403.42947 20416.47145    -0.01518    -0.68926     0.02003
  Fock        0.00000     0.00000     0.00000     0.00000     0.00000     0.00000
  -------------------------------------------------------------------------------------
  Total     -62.47557   -60.78371   -18.40899     0.00289    -0.03591     0.00935
  in kB     -55.70557   -54.19704   -16.41415     0.00258    -0.03202     0.00834
  external pressure =      -42.11 kB  Pullay stress =        0.00 kB


 VOLUME and BASIS-vectors are now :
 -----------------------------------------------------------------------------
  energy-cutoff  :      500.00
  volume of cell :     1796.89
      direct lattice vectors                 reciprocal lattice vectors
    10.903400421  0.000000000  0.000000000     0.091714508  0.052951396  0.000000000
    -5.451700211  9.442621752  0.000000000     0.000000000  0.105902791  0.000000000
     0.000000000  0.000000000 17.452899933     0.000000000  0.000000000  0.057297068

  length of vectors
    10.903400421 10.903400421 17.452899933     0.105902791  0.105902791  0.057297068


 FORCES acting on ions
    electron-ion (+dipol)            ewald-force                    non-local-force                 convergence-correction
 -----------------------------------------------------------------------------------------------
   0.251E+00 0.421E+00 0.551E+04   -.305E+00 -.364E+00 -.550E+04   0.134E-01 -.322E-01 -.324E+01   -.768E-03 -.164E-02 -.402E-02
   0.317E-03 0.586E+00 0.551E+04   0.185E-02 -.567E+00 -.550E+04   -.233E-04 -.359E-01 -.328E+01   -.190E-02 -.265E-02 -.458E-02
   0.660E+00 0.821E-01 0.551E+04   -.661E+00 -.365E-01 -.550E+04   0.169E-01 -.184E-01 -.328E+01   -.301E-02 -.331E-03 -.391E-02
   0.417E+00 0.521E+00 0.551E+04   -.278E+00 -.530E+00 -.550E+04   -.731E-01 -.923E-02 -.331E+01   -.149E-02 -.106E-02 -.395E-02
   -.260E+00 0.407E+00 0.551E+04   0.314E+00 -.353E+00 -.550E+04   -.133E-01 -.321E-01 -.324E+01   0.643E-03 0.143E-02 -.420E-02
   -.986E-02 -.184E+00 0.551E+04   0.788E-02 -.218E-01 -.550E+04   -.932E-05 0.125E+00 -.327E+01   0.203E-02 0.239E-02 -.363E-02
   -.434E+00 0.510E+00 0.551E+04   0.295E+00 -.522E+00 -.550E+04   0.732E-01 -.919E-02 -.331E+01   0.217E-02 0.151E-02 -.371E-02
   -.662E+00 0.707E-01 0.551E+04   0.664E+00 -.276E-01 -.550E+04   -.170E-01 -.185E-01 -.328E+01   0.235E-02 0.224E-02 -.368E-02
   0.977E-02 -.427E+00 0.551E+04   -.720E-02 0.435E+00 -.550E+04   -.166E-05 0.202E-01 -.322E+01   -.246E-02 -.697E-03 -.404E-02
   0.945E+00 -.445E+00 0.551E+04   -.953E+00 0.509E+00 -.550E+04   0.322E-01 -.470E-01 -.333E+01   -.263E-02 -.114E-02 -.429E-02
   -.372E+00 0.407E+00 0.551E+04   0.409E+00 -.386E+00 -.550E+04   -.240E-01 -.104E-02 -.329E+01   -.490E-03 -.122E-02 -.440E-02
   0.380E+00 0.401E+00 0.551E+04   -.412E+00 -.381E+00 -.550E+04   0.242E-01 -.110E-02 -.329E+01   -.402E-02 -.969E-03 -.484E-02
   -.167E-01 -.680E+00 0.551E+04   0.143E-01 0.530E+00 -.550E+04   0.639E-04 0.125E+00 -.326E+01   0.257E-02 0.848E-03 -.366E-02
   -.957E+00 -.451E+00 0.551E+04   0.965E+00 0.513E+00 -.550E+04   -.321E-01 -.470E-01 -.333E+01   0.252E-02 0.102E-02 -.361E-02
   0.156E+00 -.655E+00 0.551E+04   -.179E+00 0.586E+00 -.550E+04   0.226E-01 0.232E-01 -.324E+01   0.161E-02 0.247E-03 -.426E-02
   -.183E+00 -.650E+00 0.551E+04   0.202E+00 0.582E+00 -.550E+04   -.227E-01 0.232E-01 -.324E+01   0.290E-02 0.148E-05 -.391E-02
   0.581E+00 0.363E+00 0.191E+04   -.562E+00 -.325E+00 -.191E+04   -.252E-01 -.114E-01 0.368E+00   -.155E-02 -.231E-02 -.594E-02
   -.539E+00 0.315E+00 0.191E+04   0.522E+00 -.278E+00 -.191E+04   0.253E-01 -.113E-01 0.368E+00   -.111E-02 -.958E-03 -.487E-02
   -.386E+00 0.821E+00 0.191E+04   0.418E+00 -.869E+00 -.191E+04   0.111E-02 0.330E-01 0.375E+00   -.290E-02 -.684E-03 -.536E-02
   0.452E-02 -.272E+00 0.190E+04   -.516E-02 0.231E+00 -.190E+04   0.882E-05 0.301E-01 0.363E+00   -.359E-04 -.389E-04 -.537E-02
   -.148E+01 0.135E+01 0.191E+04   0.142E+01 -.138E+01 -.191E+04   -.719E-02 0.420E-02 0.399E+00   0.213E-02 0.165E-02 -.342E-02
   0.146E+01 0.136E+01 0.191E+04   -.141E+01 -.139E+01 -.191E+04   0.730E-02 0.417E-02 0.399E+00   0.517E-03 0.138E-03 -.470E-02
   0.388E+00 0.770E+00 0.191E+04   -.421E+00 -.821E+00 -.191E+04   -.973E-03 0.330E-01 0.375E+00   0.294E-02 0.238E-02 -.479E-02
   0.241E-01 -.446E+00 0.191E+04   -.248E-01 0.562E+00 -.191E+04   0.125E-04 0.897E-02 0.338E+00   -.699E-05 0.176E-02 -.462E-02
   0.381E+01 -.244E+01 0.191E+04   -.384E+01 0.244E+01 -.191E+04   0.129E-01 -.266E-01 0.366E+00   -.354E-02 -.148E-02 -.404E-02
   -.184E+00 -.902E+00 0.191E+04   0.162E+00 0.984E+00 -.191E+04   -.104E-01 -.372E-02 0.329E+00   0.545E-04 -.143E-03 -.454E-02
   0.703E-01 0.320E+01 0.190E+04   -.689E-01 -.328E+01 -.190E+04   -.305E-04 0.349E-01 0.398E+00   -.245E-02 -.154E-02 -.528E-02
   0.862E+00 0.824E+00 0.191E+04   -.791E+00 -.853E+00 -.191E+04   -.348E-01 0.119E-01 0.360E+00   -.140E-02 -.288E-03 -.367E-02
   0.139E+00 -.924E+00 0.191E+04   -.120E+00 0.100E+01 -.191E+04   0.104E-01 -.377E-02 0.329E+00   0.243E-02 0.130E-02 -.508E-02
   -.373E+01 -.247E+01 0.191E+04   0.376E+01 0.247E+01 -.191E+04   -.127E-01 -.266E-01 0.366E+00   0.105E-02 -.127E-03 -.462E-02
   -.180E-01 -.104E+01 0.191E+04   0.147E-01 0.103E+01 -.191E+04   0.252E-04 0.104E-02 0.361E+00   0.262E-02 0.537E-03 -.473E-02
   -.878E+00 0.879E+00 0.191E+04   0.807E+00 -.909E+00 -.191E+04   0.350E-01 0.117E-01 0.360E+00   0.123E-02 -.149E-03 -.540E-02
   0.759E+01 -.346E+00 -.176E+04   -.760E+01 0.329E+00 0.176E+04   0.107E-01 0.189E-01 -.465E+00   -.232E-02 -.177E-02 0.146E-02
   -.482E-02 0.357E+00 -.175E+04   0.587E-02 -.512E+00 0.175E+04   0.333E-03 0.146E+00 -.460E+00   -.980E-03 -.316E-02 0.820E-03
   0.983E+01 0.109E+01 -.177E+04   -.979E+01 -.105E+01 0.178E+04   -.458E-01 -.389E-01 -.472E+00   -.367E-02 0.427E-03 0.138E-02
   0.147E+01 -.440E+01 -.176E+04   -.159E+01 0.453E+01 0.176E+04   0.130E+00 -.132E+00 -.378E+00   -.260E-02 0.169E-03 -.603E-03
   -.758E+01 -.395E+00 -.176E+04   0.760E+01 0.376E+00 0.176E+04   -.110E-01 0.189E-01 -.465E+00   0.235E-02 0.497E-03 0.186E-02
   0.308E-02 -.314E+01 -.177E+04   -.407E-02 0.317E+01 0.177E+04   0.167E-03 -.532E-01 -.439E+00   0.939E-03 0.175E-02 0.203E-02
   -.151E+01 -.457E+01 -.176E+04   0.162E+01 0.469E+01 0.176E+04   -.130E+00 -.132E+00 -.378E+00   0.363E-02 0.171E-02 -.239E-03
   -.980E+01 0.108E+01 -.177E+04   0.975E+01 -.104E+01 0.178E+04   0.461E-01 -.390E-01 -.473E+00   0.265E-02 0.199E-02 0.179E-02
   0.661E-01 -.786E+01 -.178E+04   -.640E-01 0.788E+01 0.178E+04   0.888E-03 -.155E-02 -.473E+00   -.181E-02 -.956E-03 0.263E-02
   -.925E+01 -.193E+01 -.178E+04   0.927E+01 0.184E+01 0.178E+04   0.954E-02 0.107E+00 -.419E+00   -.343E-02 -.328E-03 0.153E-02
   -.106E+02 0.154E+02 -.177E+04   0.106E+02 -.154E+02 0.177E+04   0.201E-01 -.640E-01 -.489E+00   -.394E-03 -.246E-02 0.267E-02
   0.106E+02 0.154E+02 -.177E+04   -.106E+02 -.153E+02 0.177E+04   -.201E-01 -.639E-01 -.489E+00   -.229E-02 -.206E-02 0.271E-02
   -.101E+00 -.562E+01 -.175E+04   0.991E-01 0.552E+01 0.175E+04   -.852E-04 0.131E+00 -.247E+00   0.177E-02 0.119E-02 -.433E-03
   0.929E+01 -.197E+01 -.178E+04   -.931E+01 0.188E+01 0.178E+04   -.930E-02 0.107E+00 -.419E+00   0.345E-02 0.606E-03 0.170E-02
   0.750E+01 -.221E+01 -.175E+04   -.753E+01 0.217E+01 0.175E+04   0.291E-01 0.663E-01 -.480E+00   0.484E-03 0.139E-02 0.121E-02
   -.756E+01 -.219E+01 -.175E+04   0.759E+01 0.215E+01 0.175E+04   -.285E-01 0.670E-01 -.480E+00   0.222E-02 0.977E-03 0.109E-02
   0.584E+00 0.300E+02 -.554E+04   -.600E+00 -.299E+02 0.553E+04   0.247E-01 -.933E-01 0.319E+01   -.164E-02 -.422E-02 0.459E-02
   -.672E+00 0.300E+02 -.554E+04   0.690E+00 -.299E+02 0.553E+04   -.244E-01 -.935E-01 0.319E+01   -.282E-06 -.281E-02 0.500E-02
   0.364E+02 0.125E+02 -.551E+04   -.365E+02 -.125E+02 0.550E+04   0.995E-01 0.708E-01 0.330E+01   -.451E-02 -.143E-02 0.419E-02
   0.134E+00 0.682E+02 -.540E+04   -.134E+00 -.692E+02 0.540E+04   -.135E-02 0.104E+01 0.388E+01   0.380E-03 -.178E-02 0.480E-02
   0.936E+01 -.256E+02 -.552E+04   -.935E+01 0.255E+02 0.552E+04   -.234E-01 0.753E-01 0.313E+01   0.121E-02 0.223E-02 0.435E-02
   -.926E+01 -.254E+02 -.552E+04   0.925E+01 0.253E+02 0.552E+04   0.231E-01 0.749E-01 0.313E+01   0.429E-03 0.836E-03 0.395E-02
   -.368E+02 0.125E+02 -.551E+04   0.369E+02 -.126E+02 0.550E+04   -.982E-01 0.701E-01 0.330E+01   0.456E-02 0.954E-03 0.430E-02
   0.242E+00 -.830E+01 -.553E+04   -.241E+00 0.831E+01 0.553E+04   -.664E-03 -.290E-02 0.332E+01   -.496E-03 0.102E-02 0.345E-02
   0.291E+02 0.129E+01 -.551E+04   -.290E+02 -.123E+01 0.551E+04   -.111E+00 -.625E-01 0.331E+01   -.430E-02 0.221E-03 0.344E-02
   0.201E+03 -.143E+02 -.534E+04   -.200E+03 0.143E+02 0.534E+04   -.350E+00 -.134E-01 0.845E+00   -.236E-02 0.104E-02 0.425E-02
   0.352E-01 -.555E+01 -.553E+04   -.330E-01 0.542E+01 0.553E+04   0.930E-03 0.142E+00 0.330E+01   -.195E-02 -.174E-02 0.390E-02
   0.332E+02 -.715E+01 -.550E+04   -.332E+02 0.720E+01 0.550E+04   0.498E-01 -.601E-01 0.329E+01   -.311E-02 0.390E-03 0.423E-02
   -.201E+03 -.144E+02 -.534E+04   0.201E+03 0.144E+02 0.534E+04   0.349E+00 -.129E-01 0.852E+00   0.468E-02 0.173E-02 0.380E-02
   -.289E+02 0.135E+01 -.551E+04   0.288E+02 -.129E+01 0.551E+04   0.111E+00 -.627E-01 0.331E+01   0.201E-02 0.946E-03 0.305E-02
   0.443E-01 -.490E+02 -.542E+04   -.456E-01 0.501E+02 0.542E+04   -.973E-03 -.114E+01 0.379E+01   0.187E-02 0.231E-02 0.360E-02
   -.333E+02 -.692E+01 -.550E+04   0.333E+02 0.697E+01 0.550E+04   -.494E-01 -.604E-01 0.329E+01   0.317E-02 0.153E-03 0.349E-02
   -.478E-01 0.979E+00 -.191E+04   0.763E-01 -.111E+01 0.190E+04   -.285E-01 0.145E+00 0.115E+02   0.338E-03 0.187E-03 0.655E-03
   0.233E-01 -.562E+02 -.372E+03   -.250E-01 0.621E+02 0.376E+03   0.222E-02 -.589E+01 -.419E+01   0.483E-04 0.400E-04 0.901E-04
   0.834E-01 0.558E+02 -.372E+03   -.909E-01 -.616E+02 0.376E+03   0.913E-02 0.584E+01 -.428E+01   0.352E-04 0.573E-05 0.117E-03
 -----------------------------------------------------------------------------------------------
   0.163E-01 -.217E+00 0.208E+01   0.723E-12 -.682E-12 0.255E-10   -.159E-01 0.259E+00 -.206E+01   0.375E-03 0.687E-04 -.542E-01
 
 
 POSITION                                       TOTAL-FORCE (eV/Angst)
 -----------------------------------------------------------------------------------
     -0.00005      1.57380      0.00000        -0.041349      0.022351      0.608320
      2.72580      1.57380      0.00000         0.000235     -0.020996      0.707040
     -1.36298      3.93446      0.00000         0.013024      0.026194      0.657493
      1.36287      3.93446      0.00000         0.064530     -0.020389      0.623755
      5.45165      1.57380      0.00000         0.041896      0.022265      0.608328
      8.17749      1.57380      0.00000         0.000031     -0.078785      0.637042
      4.08872      3.93446      0.00000        -0.063952     -0.020349      0.623591
      6.81457      3.93446      0.00000        -0.012534      0.026254      0.657648
     -2.72590      6.29511      0.00000         0.000102      0.026832      0.630194
     -0.00005      6.29511      0.00000         0.021851      0.015658      0.639658
     -4.08883      8.65577      0.00000         0.012372      0.017419      0.635415
     -1.36298      8.65577      0.00000        -0.012048      0.017455      0.635366
      2.72580      6.29511      0.00000         0.000243     -0.025477      0.623633
      5.45164      6.29511      0.00000        -0.021237      0.015669      0.639690
      1.36287      8.65577      0.00000         0.001231     -0.045900      0.696907
      4.08872      8.65577      0.00000        -0.000696     -0.045938      0.697044
      1.36298      0.78685      2.15090        -0.008217      0.023812     -0.823204
      4.08883      0.78685      2.15090         0.007150      0.024288     -0.823581
      0.00005      3.14751      2.15090         0.030496     -0.016623     -0.676236
      2.72590      3.14751      2.15090        -0.000671     -0.011576     -0.748583
      6.81468      0.78685      2.15090        -0.057261     -0.033735     -0.798956
      9.54053      0.78685      2.15090         0.056697     -0.033654     -0.798898
      5.45175      3.14751      2.15090        -0.031223     -0.016484     -0.676463
      8.17761      3.14751      2.15090        -0.000659      0.125816     -0.782576
     -1.36287      5.50816      2.15090        -0.018547     -0.025447     -0.744645
      1.36298      5.50816      2.15090        -0.032747      0.077595     -0.668827
     -2.72580      7.86882      2.15090        -0.001069     -0.050092     -0.665788
      0.00005      7.86882      2.15090         0.034861     -0.018362     -0.806623
      4.08883      5.50816      2.15090         0.031954      0.077326     -0.668767
      6.81468      5.50816      2.15090         0.017050     -0.025541     -0.744183
      2.72590      7.86882      2.15090        -0.000654     -0.012057     -0.732834
      5.45176      7.86882      2.15090        -0.035432     -0.019068     -0.805958
      0.00240      1.57501      4.27365        -0.005429     -0.000289     -0.027930
      2.72581      1.55637      4.27526         0.000392     -0.013132     -0.038648
     -1.36056      3.93515      4.27321        -0.006959      0.001705     -0.028096
      1.35283      3.94118      4.27711         0.012370     -0.005165     -0.015309
      5.44935      1.57501      4.27359         0.004792     -0.000070     -0.026881
      8.17756      1.57869      4.27287         0.000105     -0.016306     -0.027499
      4.09887      3.94111      4.27711        -0.012575     -0.003636     -0.014790
      6.81222      3.93510      4.27327         0.006904      0.002279     -0.028466
     -2.72589      6.28848      4.28069         0.001208      0.011395     -0.039400
     -0.00853      6.28834      4.27152         0.026072      0.008326     -0.022366
     -4.09460      8.66064      4.27498         0.030241     -0.024013     -0.038607
     -1.35724      8.66069      4.27486        -0.029225     -0.024914     -0.037770
      2.72588      6.28457      4.27204         0.000065      0.031571     -0.004675
      5.46012      6.28818      4.27168        -0.026189      0.009970     -0.022188
      1.36110      8.64824      4.27688         0.003928      0.033711     -0.046391
      4.09058      8.64822      4.27686        -0.002958      0.034399     -0.046028
      1.35539      0.78081      6.33650         0.006527     -0.001540      0.136788
      4.09626      0.78072      6.33644        -0.006476     -0.000741      0.137005
     -0.00818      3.13670      6.34229         0.006050     -0.000768      0.133046
      2.72593      3.08404      6.30640        -0.000838      0.017464      0.135904
      6.81608      0.79177      6.33286        -0.005584     -0.003751      0.139779
      9.53898      0.79184      6.33297         0.005310     -0.003861      0.138954
      5.45949      3.13681      6.34234        -0.004859     -0.001585      0.132834
      8.17759      3.15089      6.34117        -0.000257      0.008308      0.126781
     -1.35399      5.50939      6.33700        -0.006107     -0.000431      0.140967
      1.39808      5.49861      6.41298        -0.020046      0.006150      0.104681
     -2.72590      7.85580      6.33576         0.001226      0.006467      0.139094
     -0.00585      7.87545      6.33441         0.012192     -0.010442      0.128312
      4.05319      5.49855      6.41356         0.019545      0.005505      0.104111
      6.80567      5.50942      6.33697         0.005232     -0.000999      0.142431
      2.72589      7.93477      6.32402        -0.000378     -0.033765      0.137399
      5.45737      7.87556      6.33455        -0.012382     -0.012107      0.126827
      2.72486      5.47854      8.05820         0.000407      0.010886      0.013900
      2.72453      6.30846      8.65670         0.000558     -0.020855     -0.008365
      2.72362      4.65732      8.66740         0.001709     -0.008226     -0.000407
 -----------------------------------------------------------------------------------
    total drift:                                0.000781      0.041746     -0.030379


--------------------------------------------------------------------------------------------------------



  FREE ENERGIE OF THE ION-ELECTRON SYSTEM (eV)
  ---------------------------------------------------
  free  energy   TOTEN  =      -576.29421935 eV

  energy  without entropy=     -576.28811878  energy(sigma->0) =     -576.29116906
 


--------------------------------------------------------------------------------------------------------


    POTLOK:  cpu time      0.0659: real time      0.0663


--------------------------------------------------------------------------------------------------------




--------------------------------------------------------------------------------------------------------


    WAVPRE:  cpu time      0.0303: real time      0.0324
    FEWALD:  cpu time      0.0014: real time      0.0014

 real space projection operators:
  total allocation   :      15928.76 KBytes
  max/ min on nodes  :       1284.34        670.88

    ORTHCH:  cpu time      2.4055: real time      2.4201
     LOOP+:  cpu time    783.9134: real time    792.3440


--------------------------------------- Ionic step        2  -------------------------------------------




--------------------------------------- Iteration      2(   1)  ---------------------------------------


    POTLOK:  cpu time      0.0672: real time      0.0684
    SETDIJ:  cpu time      0.0061: real time      0.0061
     EDDAV:  cpu time     50.0082: real time     50.9754
       DOS:  cpu time      0.0175: real time      0.0176
    CHARGE:  cpu time      0.4520: real time      0.4541
    MIXING:  cpu time      0.0036: real time      0.0036
    --------------------------------------------
      LOOP:  cpu time     50.5546: real time     51.5253

 eigenvalue-minimisations  :  6890
 total energy-change (2. order) : 0.9805485E-04  (-0.2247347E-01)
 number of electron    1031.0001756 magnetization 
 augmentation part      248.2322264 magnetization 

  free energy =  -0.576294119210E+03  energy without entropy=  -0.576288091854E+03


--------------------------------------------------------------------------------------------------------




--------------------------------------- Iteration      2(   2)  ---------------------------------------


    POTLOK:  cpu time      0.0667: real time      0.0698
    SETDIJ:  cpu time      0.0056: real time      0.0056
    EDDIAG:  cpu time      5.3445: real time      5.3750
  RMM-DIIS:  cpu time     10.4433: real time     10.5330
    ORTHCH:  cpu time      1.4717: real time      1.4811
       DOS:  cpu time      0.0053: real time      0.0053
    CHARGE:  cpu time      0.4510: real time      0.4534
    MIXING:  cpu time      0.0034: real time      0.0034
    --------------------------------------------
      LOOP:  cpu time     17.7916: real time     17.9265

 eigenvalue-minimisations  :  6799
 total energy-change (2. order) :-0.2988589E-02  (-0.2587909E-02)
 number of electron    1031.0001756 magnetization 
 augmentation part      248.2325735 magnetization 

 eigenvalues of (default mixing * dielectric matrix)
  average eigenvalue GAMMA=   0.2892
  0.2892

  free energy =  -0.576297107798E+03  energy without entropy=  -0.576291089280E+03


--------------------------------------------------------------------------------------------------------




--------------------------------------- Iteration      2(   3)  ---------------------------------------


    POTLOK:  cpu time      0.0649: real time      0.0657
    SETDIJ:  cpu time      0.0060: real time      0.0060
    EDDIAG:  cpu time      5.5685: real time      5.6011
  RMM-DIIS:  cpu time      9.1114: real time      9.1879
    ORTHCH:  cpu time      1.4852: real time      1.4954
       DOS:  cpu time      0.0038: real time      0.0038
    CHARGE:  cpu time      0.4559: real time      0.4581
    MIXING:  cpu time      0.0022: real time      0.0022
    --------------------------------------------
      LOOP:  cpu time     16.6979: real time     16.8203

 eigenvalue-minimisations  :  5933
 total energy-change (2. order) : 0.6946252E-04  (-0.4349220E-03)
 number of electron    1031.0001756 magnetization 
 augmentation part      248.2321657 magnetization 

 eigenvalues of (default mixing * dielectric matrix)
  average eigenvalue GAMMA=   0.3846
  0.6720  0.0972

  free energy =  -0.576297038336E+03  energy without entropy=  -0.576291068610E+03


--------------------------------------------------------------------------------------------------------




--------------------------------------- Iteration      2(   4)  ---------------------------------------


    POTLOK:  cpu time      0.0607: real time      0.0657
    SETDIJ:  cpu time      0.0060: real time      0.0060
    EDDIAG:  cpu time      5.6298: real time      5.6649
  RMM-DIIS:  cpu time     11.5068: real time     11.6023
    ORTHCH:  cpu time      1.4881: real time      1.4979
       DOS:  cpu time      0.0036: real time      0.0036
    CHARGE:  cpu time      0.4855: real time      0.4881
    MIXING:  cpu time      0.0025: real time      0.0025
    --------------------------------------------
      LOOP:  cpu time     19.1830: real time     19.3310

 eigenvalue-minimisations  :  7353
 total energy-change (2. order) :-0.1668264E-04  (-0.1015486E-03)
 number of electron    1031.0001756 magnetization 
 augmentation part      248.2321420 magnetization 

 eigenvalues of (default mixing * dielectric matrix)
  average eigenvalue GAMMA=   0.3931
  0.7857  0.0995  0.2942

  free energy =  -0.576297055019E+03  energy without entropy=  -0.576291000469E+03


--------------------------------------------------------------------------------------------------------




--------------------------------------- Iteration      2(   5)  ---------------------------------------


    POTLOK:  cpu time      0.0942: real time      0.0949
    SETDIJ:  cpu time      0.0066: real time      0.0067
    EDDIAG:  cpu time      5.6487: real time      5.6801
  RMM-DIIS:  cpu time      8.6926: real time      8.7647
    ORTHCH:  cpu time      1.4831: real time      1.4934
       DOS:  cpu time      0.0033: real time      0.0033
    CHARGE:  cpu time      0.4546: real time      0.4586
    MIXING:  cpu time      0.0022: real time      0.0023
    --------------------------------------------
      LOOP:  cpu time     16.3854: real time     16.5040

 eigenvalue-minimisations  :  5636
 total energy-change (2. order) : 0.8744150E-04  (-0.1190435E-04)
 number of electron    1031.0001756 magnetization 
 augmentation part      248.2333852 magnetization 

 eigenvalues of (default mixing * dielectric matrix)
  average eigenvalue GAMMA=   0.6614
  1.1712  1.1712  0.0976  0.2057

  free energy =  -0.576296967577E+03  energy without entropy=  -0.576290957102E+03


--------------------------------------------------------------------------------------------------------




--------------------------------------- Iteration      2(   6)  ---------------------------------------


    POTLOK:  cpu time      0.0631: real time      0.0638
    SETDIJ:  cpu time      0.0064: real time      0.0064
    EDDIAG:  cpu time      5.5576: real time      5.5881
  RMM-DIIS:  cpu time      8.3233: real time      8.3923
    ORTHCH:  cpu time      1.4896: real time      1.5002
       DOS:  cpu time      0.0040: real time      0.0040
    CHARGE:  cpu time      0.4553: real time      0.4579
    MIXING:  cpu time      0.0026: real time      0.0026
    --------------------------------------------
      LOOP:  cpu time     15.9019: real time     16.0155

 eigenvalue-minimisations  :  5269
 total energy-change (2. order) :-0.1541610E-04  (-0.1598427E-04)
 number of electron    1031.0001756 magnetization 
 augmentation part      248.2338228 magnetization 

 eigenvalues of (default mixing * dielectric matrix)
  average eigenvalue GAMMA=   0.6829
  1.4277  1.4277  0.0978  0.2656  0.1959

  free energy =  -0.576296982993E+03  energy without entropy=  -0.576290932297E+03


--------------------------------------------------------------------------------------------------------




--------------------------------------- Iteration      2(   7)  ---------------------------------------


    POTLOK:  cpu time      0.0712: real time      0.0721
    SETDIJ:  cpu time      0.0058: real time      0.0058
    EDDIAG:  cpu time      5.4833: real time      5.5175
  RMM-DIIS:  cpu time      8.1479: real time      8.2189
    ORTHCH:  cpu time      1.5110: real time      1.5207
       DOS:  cpu time      0.0046: real time      0.0046
    CHARGE:  cpu time      0.4564: real time      0.4584
    MIXING:  cpu time      0.0025: real time      0.0025
    --------------------------------------------
      LOOP:  cpu time     15.6826: real time     15.8005

 eigenvalue-minimisations  :  5170
 total energy-change (2. order) : 0.2447347E-04  (-0.1295842E-04)
 number of electron    1031.0001756 magnetization 
 augmentation part      248.2341434 magnetization 

 eigenvalues of (default mixing * dielectric matrix)
  average eigenvalue GAMMA=   0.6832
  1.5222  1.0209  1.0209  0.0978  0.2009  0.2365

  free energy =  -0.576296958520E+03  energy without entropy=  -0.576290906866E+03


--------------------------------------------------------------------------------------------------------




--------------------------------------- Iteration      2(   8)  ---------------------------------------


    POTLOK:  cpu time      0.0626: real time      0.0632
    SETDIJ:  cpu time      0.0062: real time      0.0062
    EDDIAG:  cpu time      5.4804: real time      5.5096
  RMM-DIIS:  cpu time      5.9865: real time      6.0355
    ORTHCH:  cpu time      1.5421: real time      1.5521
       DOS:  cpu time      0.0048: real time      0.0048
    --------------------------------------------
      LOOP:  cpu time     13.0825: real time     13.1714

 eigenvalue-minimisations  :  3665
 total energy-change (2. order) : 0.4862668E-05  (-0.1674106E-05)
 number of electron    1031.0001756 magnetization 
 augmentation part      248.2341434 magnetization 

  free energy =  -0.576296953657E+03  energy without entropy=  -0.576290912654E+03


--------------------------------------------------------------------------------------------------------




------------------------ aborting loop because EDIFF is reached ----------------------------------------





 total charge

# of ion       s       p       d       tot
------------------------------------------
    1        2.212   6.044   5.304  13.559
    2        2.211   6.044   5.305  13.560
    3        2.211   6.044   5.305  13.560
    4        2.211   6.044   5.303  13.558
    5        2.212   6.044   5.304  13.559
    6        2.211   6.044   5.304  13.559
    7        2.211   6.044   5.303  13.558
    8        2.211   6.044   5.305  13.560
    9        2.212   6.044   5.303  13.559
   10        2.211   6.044   5.304  13.559
   11        2.211   6.044   5.303  13.558
   12        2.211   6.044   5.303  13.558
   13        2.211   6.044   5.302  13.557
   14        2.211   6.044   5.305  13.559
   15        2.212   6.044   5.303  13.558
   16        2.212   6.044   5.303  13.558
   17        2.219   6.103   5.276  13.597
   18        2.219   6.103   5.276  13.597
   19        2.219   6.103   5.274  13.595
   20        2.218   6.102   5.270  13.590
   21        2.218   6.102   5.275  13.595
   22        2.218   6.102   5.275  13.595
   23        2.219   6.103   5.274  13.595
   24        2.218   6.103   5.275  13.596
   25        2.219   6.103   5.274  13.595
   26        2.219   6.102   5.275  13.596
   27        2.218   6.102   5.274  13.594
   28        2.219   6.102   5.275  13.596
   29        2.219   6.102   5.275  13.596
   30        2.219   6.103   5.274  13.595
   31        2.218   6.103   5.273  13.594
   32        2.219   6.102   5.275  13.596
   33        2.223   6.112   5.285  13.620
   34        2.224   6.114   5.284  13.622
   35        2.223   6.112   5.285  13.619
   36        2.222   6.108   5.282  13.612
   37        2.223   6.111   5.285  13.620
   38        2.222   6.111   5.286  13.619
   39        2.222   6.108   5.282  13.612
   40        2.223   6.112   5.285  13.619
   41        2.223   6.111   5.284  13.618
   42        2.222   6.108   5.289  13.620
   43        2.223   6.112   5.284  13.619
   44        2.223   6.112   5.284  13.619
   45        2.220   6.108   5.272  13.600
   46        2.222   6.108   5.289  13.620
   47        2.224   6.112   5.284  13.619
   48        2.224   6.112   5.284  13.619
   49        2.219   6.053   5.318  13.591
   50        2.219   6.053   5.319  13.591
   51        2.217   6.050   5.321  13.588
   52        2.217   6.051   5.344  13.612
   53        2.219   6.055   5.316  13.590
   54        2.219   6.055   5.316  13.590
   55        2.217   6.050   5.321  13.588
   56        2.217   6.051   5.319  13.587
   57        2.217   6.050   5.319  13.586
   58        2.205   6.076   5.286  13.567
   59        2.217   6.051   5.320  13.588
   60        2.218   6.050   5.320  13.588
   61        2.205   6.076   5.286  13.567
   62        2.217   6.050   5.319  13.586
   63        2.217   6.049   5.347  13.612
   64        2.218   6.050   5.320  13.588
   65        1.216   2.629   0.000   3.845
   66        0.634   0.082   0.000   0.716
   67        0.635   0.082   0.000   0.717
--------------------------------------------------
tot        144.381 391.773 338.887 875.040
 
    CHARGE:  cpu time      0.4860: real time      0.4884
    FORLOC:  cpu time      0.0324: real time      0.0325
    FORNL :  cpu time      2.6229: real time      2.6369
    STRESS:  cpu time      8.0080: real time      8.0506
    FORCOR:  cpu time      0.0744: real time      0.0748
    FORHAR:  cpu time      0.0287: real time      0.0288
    MIXING:  cpu time      0.0025: real time      0.0026
    OFIELD:  cpu time      0.0000: real time      0.0000

  FORCE on cell =-STRESS in cart. coord.  units (eV):
  Direction    XX          YY          ZZ          XY          YZ          ZX
  --------------------------------------------------------------------------------------
  Alpha Z  3956.67891  3956.67891  3956.67891
  Ewald  325377.05398325327.76821************     0.26949     5.48434     0.02794
  Hartree369045.88341368997.30158************     0.12075     3.35770     0.02365
  E(xc)   -5604.83927 -5604.58530 -5616.20327     0.00037    -0.00705    -0.00016
  Local  ************************741360.25689    -0.37249    -7.87951    -0.06184
  n-local  2354.29441  2354.99587  2313.27960     0.00127    -0.02164     0.00291
  augment  5363.55250  5363.54334  5348.57331    -0.00018    -0.26964     0.00009
  Kinetic 20415.20849 20403.19668 20416.24879    -0.01827    -0.68577     0.01793
  Fock        0.00000     0.00000     0.00000     0.00000     0.00000     0.00000
  -------------------------------------------------------------------------------------
  Total     -62.65954   -60.97248   -18.89672     0.00093    -0.02157     0.01052
  in kB     -55.86961   -54.36536   -16.84903     0.00083    -0.01923     0.00938
  external pressure =      -42.36 kB  Pullay stress =        0.00 kB



--------------------------------------------------------------------------------------------------------



  FREE ENERGIE OF THE ION-ELECTRON SYSTEM (eV)
  ---------------------------------------------------
  free  energy   TOTEN  =      -576.29695366 eV

  energy  without entropy=     -576.29091265  energy(sigma->0) =     -576.29393316
 
 d Force = 0.2752277E-02[ 0.254E-02, 0.297E-02]  d Energy = 0.2734311E-02 0.180E-04
 d Force = 0.1037216E+03[ 0.104E+03, 0.104E+03]  d Ewald  = 0.1037216E+03-0.794E-06


--------------------------------------------------------------------------------------------------------


    POTLOK:  cpu time      0.0653: real time      0.0657


--------------------------------------------------------------------------------------------------------


 Steepest descent step on ions:
 trial-energy change:   -0.002734  1 .order   -0.002752   -0.002968   -0.002537
  (g-gl).g = 0.297E-02      g.g   = 0.297E-02  gl.gl    = 0.000E+00
 g(Force)  = 0.297E-02   g(Stress)= 0.000E+00 ortho     = 0.000E+00
 gamma     =   0.00000
 trial     =   1.00000
 opt step  =   4.00000  (harmonic =   6.88637) maximal distance =0.00549698
 next E    =  -576.304438   (d E  =  -0.01022)


--------------------------------------------------------------------------------------------------------


    WAVPRE:  cpu time      0.0471: real time      0.0491
    FEWALD:  cpu time      0.0015: real time      0.0015

 real space projection operators:
  total allocation   :      15922.75 KBytes
  max/ min on nodes  :       1283.92        671.16

    ORTHCH:  cpu time      2.4488: real time      2.4635
     LOOP+:  cpu time    179.1192: real time    181.0139


--------------------------------------- Ionic step        3  -------------------------------------------




--------------------------------------- Iteration      3(   1)  ---------------------------------------


    POTLOK:  cpu time      0.0604: real time      0.0616
    SETDIJ:  cpu time      0.0077: real time      0.0078
     EDDAV:  cpu time     48.3342: real time     49.3237
       DOS:  cpu time      0.0149: real time      0.0149
    CHARGE:  cpu time      0.4520: real time      0.4542
    MIXING:  cpu time      0.0022: real time      0.0022
    --------------------------------------------
      LOOP:  cpu time     48.8713: real time     49.8644

 eigenvalue-minimisations  :  6568
 total energy-change (2. order) : 0.2006117E-01  (-0.2024351E+00)
 number of electron    1031.0001741 magnetization 
 augmentation part      248.2292732 magnetization 

  free energy =  -0.576276897352E+03  energy without entropy=  -0.576271079372E+03


--------------------------------------------------------------------------------------------------------




--------------------------------------- Iteration      3(   2)  ---------------------------------------


    POTLOK:  cpu time      0.0728: real time      0.0735
    SETDIJ:  cpu time      0.0061: real time      0.0062
    EDDIAG:  cpu time      5.3902: real time      5.4213
  RMM-DIIS:  cpu time     10.4768: real time     10.5671
    ORTHCH:  cpu time      1.5018: real time      1.5112
       DOS:  cpu time      0.0044: real time      0.0044
    CHARGE:  cpu time      0.4620: real time      0.4645
    MIXING:  cpu time      0.0019: real time      0.0019
    --------------------------------------------
      LOOP:  cpu time     17.9161: real time     18.0502

 eigenvalue-minimisations  :  6911
 total energy-change (2. order) :-0.2652049E-01  (-0.2326706E-01)
 number of electron    1031.0001741 magnetization 
 augmentation part      248.2292764 magnetization 

 eigenvalues of (default mixing * dielectric matrix)
  average eigenvalue GAMMA=   0.3014
  0.3014

  free energy =  -0.576303417840E+03  energy without entropy=  -0.576297657964E+03


--------------------------------------------------------------------------------------------------------




--------------------------------------- Iteration      3(   3)  ---------------------------------------


    POTLOK:  cpu time      0.0613: real time      0.0631
    SETDIJ:  cpu time      0.0064: real time      0.0064
    EDDIAG:  cpu time      5.3930: real time      5.4223
  RMM-DIIS:  cpu time      9.4881: real time      9.5694
    ORTHCH:  cpu time      1.4807: real time      1.4904
       DOS:  cpu time      0.0030: real time      0.0030
    CHARGE:  cpu time      0.4537: real time      0.4560
    MIXING:  cpu time      0.0020: real time      0.0020
    --------------------------------------------
      LOOP:  cpu time     16.8881: real time     17.0126

 eigenvalue-minimisations  :  6194
 total energy-change (2. order) : 0.5659694E-04  (-0.3962786E-02)
 number of electron    1031.0001741 magnetization 
 augmentation part      248.2284119 magnetization 

 eigenvalues of (default mixing * dielectric matrix)
  average eigenvalue GAMMA=   0.3872
  0.6769  0.0976

  free energy =  -0.576303361243E+03  energy without entropy=  -0.576297702593E+03


--------------------------------------------------------------------------------------------------------




--------------------------------------- Iteration      3(   4)  ---------------------------------------


    POTLOK:  cpu time      0.0626: real time      0.0634
    SETDIJ:  cpu time      0.0058: real time      0.0058
    EDDIAG:  cpu time      5.4114: real time      5.4419
  RMM-DIIS:  cpu time     12.1256: real time     12.2311
    ORTHCH:  cpu time      1.4825: real time      1.4925
       DOS:  cpu time      0.0039: real time      0.0039
    CHARGE:  cpu time      0.4554: real time      0.4578
    MIXING:  cpu time      0.0023: real time      0.0023
    --------------------------------------------
      LOOP:  cpu time     19.5495: real time     19.6986

 eigenvalue-minimisations  :  7749
 total energy-change (2. order) :-0.5762698E-04  (-0.9344629E-03)
 number of electron    1031.0001740 magnetization 
 augmentation part      248.2278794 magnetization 

 eigenvalues of (default mixing * dielectric matrix)
  average eigenvalue GAMMA=   0.3895
  0.7915  0.0995  0.2776

  free energy =  -0.576303418870E+03  energy without entropy=  -0.576297530173E+03


--------------------------------------------------------------------------------------------------------




--------------------------------------- Iteration      3(   5)  ---------------------------------------


    POTLOK:  cpu time      0.0721: real time      0.0730
    SETDIJ:  cpu time      0.0060: real time      0.0061
    EDDIAG:  cpu time      5.4124: real time      5.4427
  RMM-DIIS:  cpu time      9.5769: real time      9.6576
    ORTHCH:  cpu time      1.4874: real time      1.5002
       DOS:  cpu time      0.0033: real time      0.0033
    CHARGE:  cpu time      0.4540: real time      0.4564
    MIXING:  cpu time      0.0023: real time      0.0023
    --------------------------------------------
      LOOP:  cpu time     17.0144: real time     17.1415

 eigenvalue-minimisations  :  6185
 total energy-change (2. order) : 0.8545812E-03  (-0.1101447E-03)
 number of electron    1031.0001740 magnetization 
 augmentation part      248.2318475 magnetization 

 eigenvalues of (default mixing * dielectric matrix)
  average eigenvalue GAMMA=   0.6643
  1.1771  1.1771  0.0975  0.2056

  free energy =  -0.576302564288E+03  energy without entropy=  -0.576296793877E+03


--------------------------------------------------------------------------------------------------------




--------------------------------------- Iteration      3(   6)  ---------------------------------------


    POTLOK:  cpu time      0.0614: real time      0.0622
    SETDIJ:  cpu time      0.0061: real time      0.0061
    EDDIAG:  cpu time      5.3735: real time      5.4037
  RMM-DIIS:  cpu time     10.0301: real time     10.1135
    ORTHCH:  cpu time      1.4976: real time      1.5071
       DOS:  cpu time      0.0032: real time      0.0032
    CHARGE:  cpu time      0.4875: real time      0.4898
    MIXING:  cpu time      0.0024: real time      0.0025
    --------------------------------------------
      LOOP:  cpu time     17.4618: real time     17.5880

 eigenvalue-minimisations  :  6368
 total energy-change (2. order) :-0.1162356E-03  (-0.1475144E-03)
 number of electron    1031.0001741 magnetization 
 augmentation part      248.2335917 magnetization 

 eigenvalues of (default mixing * dielectric matrix)
  average eigenvalue GAMMA=   0.6842
  1.4310  1.4310  0.0976  0.1973  0.2641

  free energy =  -0.576302680524E+03  energy without entropy=  -0.576296802298E+03


--------------------------------------------------------------------------------------------------------




--------------------------------------- Iteration      3(   7)  ---------------------------------------


    POTLOK:  cpu time      0.0703: real time      0.0724
    SETDIJ:  cpu time      0.0061: real time      0.0061
    EDDIAG:  cpu time      5.4393: real time      5.4699
  RMM-DIIS:  cpu time     10.1974: real time     10.2866
    ORTHCH:  cpu time      1.5034: real time      1.5132
       DOS:  cpu time      0.0046: real time      0.0047
    CHARGE:  cpu time      0.4537: real time      0.4559
    MIXING:  cpu time      0.0025: real time      0.0025
    --------------------------------------------
      LOOP:  cpu time     17.6774: real time     17.8113

 eigenvalue-minimisations  :  6603
 total energy-change (2. order) : 0.1929740E-03  (-0.1149506E-03)
 number of electron    1031.0001741 magnetization 
 augmentation part      248.2345938 magnetization 

 eigenvalues of (default mixing * dielectric matrix)
  average eigenvalue GAMMA=   0.6870
  1.5764  1.0063  1.0063  0.0976  0.2017  0.2334

  free energy =  -0.576302487550E+03  energy without entropy=  -0.576296602038E+03


--------------------------------------------------------------------------------------------------------




--------------------------------------- Iteration      3(   8)  ---------------------------------------


    POTLOK:  cpu time      0.0618: real time      0.0630
    SETDIJ:  cpu time      0.0058: real time      0.0058
    EDDIAG:  cpu time      5.4511: real time      5.4810
  RMM-DIIS:  cpu time      8.6122: real time      8.6834
    ORTHCH:  cpu time      1.5299: real time      1.5400
       DOS:  cpu time      0.0038: real time      0.0038
    CHARGE:  cpu time      0.4891: real time      0.4917
    MIXING:  cpu time      0.0026: real time      0.0026
    --------------------------------------------
      LOOP:  cpu time     16.1562: real time     16.2712

 eigenvalue-minimisations  :  5462
 total energy-change (2. order) : 0.4682029E-04  (-0.1501577E-04)
 number of electron    1031.0001740 magnetization 
 augmentation part      248.2328372 magnetization 

 eigenvalues of (default mixing * dielectric matrix)
  average eigenvalue GAMMA=   0.6361
  1.6144  1.0138  1.0138  0.0976  0.2611  0.2611  0.1909

  free energy =  -0.576302440730E+03  energy without entropy=  -0.576296580231E+03


--------------------------------------------------------------------------------------------------------




--------------------------------------- Iteration      3(   9)  ---------------------------------------


    POTLOK:  cpu time      0.0749: real time      0.0756
    SETDIJ:  cpu time      0.0068: real time      0.0069
    EDDIAG:  cpu time      5.3868: real time      5.4177
  RMM-DIIS:  cpu time      8.1728: real time      8.2424
    ORTHCH:  cpu time      1.5193: real time      1.5296
       DOS:  cpu time      0.0108: real time      0.0109
    CHARGE:  cpu time      0.5232: real time      0.5260
    MIXING:  cpu time      0.0026: real time      0.0027
    --------------------------------------------
      LOOP:  cpu time     15.6973: real time     15.8116

 eigenvalue-minimisations  :  5209
 total energy-change (2. order) : 0.4603880E-04  (-0.5809399E-05)
 number of electron    1031.0001740 magnetization 
 augmentation part      248.2322719 magnetization 

 eigenvalues of (default mixing * dielectric matrix)
  average eigenvalue GAMMA=   0.7131
  1.8307  1.0745  1.0745  0.9648  0.0976  0.2579  0.1952  0.2096

  free energy =  -0.576302394691E+03  energy without entropy=  -0.576296539169E+03


--------------------------------------------------------------------------------------------------------




--------------------------------------- Iteration      3(  10)  ---------------------------------------


    POTLOK:  cpu time      0.0642: real time      0.0651
    SETDIJ:  cpu time      0.0061: real time      0.0061
    EDDIAG:  cpu time      5.5599: real time      5.5919
  RMM-DIIS:  cpu time      8.9606: real time      9.0369
    ORTHCH:  cpu time      1.5268: real time      1.5375
       DOS:  cpu time      0.0044: real time      0.0045
    --------------------------------------------
      LOOP:  cpu time     16.1221: real time     16.2420

 eigenvalue-minimisations  :  5735
 total energy-change (2. order) :-0.2722983E-05  (-0.9165918E-05)
 number of electron    1031.0001740 magnetization 
 augmentation part      248.2322719 magnetization 

  free energy =  -0.576302397414E+03  energy without entropy=  -0.576296536261E+03


--------------------------------------------------------------------------------------------------------




------------------------ aborting loop because EDIFF is reached ----------------------------------------





 total charge

# of ion       s       p       d       tot
------------------------------------------
    1        2.212   6.044   5.302  13.558
    2        2.211   6.044   5.303  13.558
    3        2.211   6.044   5.304  13.559
    4        2.211   6.044   5.303  13.558
    5        2.212   6.044   5.305  13.560
    6        2.211   6.044   5.303  13.558
    7        2.211   6.044   5.303  13.558
    8        2.211   6.044   5.304  13.559
    9        2.212   6.044   5.303  13.559
   10        2.211   6.044   5.306  13.561
   11        2.211   6.044   5.303  13.558
   12        2.211   6.044   5.305  13.560
   13        2.211   6.044   5.304  13.559
   14        2.211   6.044   5.304  13.558
   15        2.212   6.044   5.304  13.560
   16        2.212   6.044   5.302  13.557
   17        2.219   6.103   5.275  13.597
   18        2.219   6.103   5.276  13.597
   19        2.219   6.103   5.274  13.596
   20        2.218   6.102   5.271  13.591
   21        2.218   6.102   5.274  13.595
   22        2.218   6.102   5.274  13.595
   23        2.219   6.103   5.275  13.596
   24        2.218   6.103   5.274  13.595
   25        2.219   6.103   5.274  13.596
   26        2.219   6.103   5.274  13.595
   27        2.218   6.102   5.273  13.594
   28        2.219   6.102   5.276  13.597
   29        2.219   6.103   5.274  13.595
   30        2.219   6.103   5.274  13.596
   31        2.218   6.103   5.275  13.596
   32        2.219   6.102   5.275  13.596
   33        2.223   6.111   5.285  13.619
   34        2.224   6.113   5.284  13.621
   35        2.223   6.111   5.285  13.619
   36        2.221   6.108   5.281  13.611
   37        2.223   6.111   5.285  13.619
   38        2.222   6.110   5.284  13.616
   39        2.221   6.108   5.281  13.611
   40        2.223   6.111   5.285  13.619
   41        2.223   6.111   5.285  13.619
   42        2.222   6.108   5.288  13.619
   43        2.223   6.111   5.283  13.618
   44        2.223   6.111   5.283  13.618
   45        2.220   6.108   5.271  13.599
   46        2.222   6.108   5.289  13.619
   47        2.223   6.111   5.284  13.619
   48        2.223   6.111   5.284  13.619
   49        2.219   6.053   5.317  13.588
   50        2.219   6.053   5.316  13.588
   51        2.217   6.049   5.320  13.586
   52        2.217   6.051   5.345  13.612
   53        2.219   6.054   5.314  13.588
   54        2.219   6.054   5.315  13.588
   55        2.217   6.049   5.320  13.586
   56        2.217   6.050   5.318  13.585
   57        2.217   6.050   5.317  13.584
   58        2.205   6.076   5.284  13.564
   59        2.217   6.051   5.317  13.585
   60        2.217   6.050   5.318  13.586
   61        2.205   6.075   5.284  13.564
   62        2.217   6.050   5.318  13.584
   63        2.217   6.048   5.347  13.611
   64        2.217   6.050   5.320  13.587
   65        1.216   2.630   0.000   3.846
   66        0.635   0.083   0.000   0.718
   67        0.634   0.082   0.000   0.717
--------------------------------------------------
tot        144.375 391.764 338.856 874.995
 
    CHARGE:  cpu time      0.4793: real time      0.4817
    FORLOC:  cpu time      0.0170: real time      0.0170
    FORNL :  cpu time      2.7355: real time      2.7511
    STRESS:  cpu time      8.0664: real time      8.1132
    FORCOR:  cpu time      0.0667: real time      0.0671
    FORHAR:  cpu time      0.0279: real time      0.0281
    MIXING:  cpu time      0.0027: real time      0.0027
    OFIELD:  cpu time      0.0000: real time      0.0000

  FORCE on cell =-STRESS in cart. coord.  units (eV):
  Direction    XX          YY          ZZ          XY          YZ          ZX
  --------------------------------------------------------------------------------------
  Alpha Z  3956.67891  3956.67891  3956.67891
  Ewald  325059.39239325010.82121************     0.23765     5.35948     0.03280
  Hartree368733.21239368685.09266************     0.13156     3.21493     0.01313
  E(xc)   -5604.66715 -5604.41347 -5616.06156     0.00031    -0.00731    -0.00016
  Local  ************************740721.72809    -0.38848    -7.60378    -0.08029
  n-local  2353.82142  2354.51930  2312.39015     0.00258    -0.04443     0.00314
  augment  5363.51674  5363.45715  5348.77748     0.00542    -0.25532     0.00430
  Kinetic 20414.51780 20402.37131 20415.47563     0.00804    -0.67071     0.03334
  Fock        0.00000     0.00000     0.00000     0.00000     0.00000     0.00000
  -------------------------------------------------------------------------------------
  Total     -63.24128   -61.62448   -20.43424    -0.00291    -0.00713     0.00626
  in kB     -56.38831   -54.94671   -18.21994    -0.00260    -0.00635     0.00558
  external pressure =      -43.18 kB  Pullay stress =        0.00 kB



--------------------------------------------------------------------------------------------------------



  FREE ENERGIE OF THE ION-ELECTRON SYSTEM (eV)
  ---------------------------------------------------
  free  energy   TOTEN  =      -576.30239741 eV

  energy  without entropy=     -576.29653626  energy(sigma->0) =     -576.29946684
 
 d Force = 0.5446522E-02[ 0.328E-02, 0.761E-02]  d Energy = 0.5443757E-02 0.277E-05
 d Force = 0.3109546E+03[ 0.311E+03, 0.311E+03]  d Ewald  = 0.3109546E+03-0.394E-04


--------------------------------------------------------------------------------------------------------


    POTLOK:  cpu time      0.0630: real time      0.0634


--------------------------------------------------------------------------------------------------------




--------------------------------------------------------------------------------------------------------


    WAVPRE:  cpu time      0.0275: real time      0.0297
    FEWALD:  cpu time      0.0014: real time      0.0014

 real space projection operators:
  total allocation   :      15894.79 KBytes
  max/ min on nodes  :       1282.52        669.33

    ORTHCH:  cpu time      2.3724: real time      2.3865
     LOOP+:  cpu time    217.2362: real time    219.4582


--------------------------------------- Ionic step        4  -------------------------------------------




--------------------------------------- Iteration      4(   1)  ---------------------------------------


    POTLOK:  cpu time      0.0741: real time      0.0755
    SETDIJ:  cpu time      0.0225: real time      0.0226
     EDDAV:  cpu time     47.7108: real time     48.7014
       DOS:  cpu time      0.0145: real time      0.0145
    CHARGE:  cpu time      0.4503: real time      0.4527
    MIXING:  cpu time      0.0020: real time      0.0020
    --------------------------------------------
      LOOP:  cpu time     48.2741: real time     49.2687

 eigenvalue-minimisations  :  6472
 total energy-change (2. order) : 0.1030962E+00  (-0.8096790E+00)
 number of electron    1031.0001695 magnetization 
 augmentation part      248.2261627 magnetization 

  free energy =  -0.576199298458E+03  energy without entropy=  -0.576193899783E+03


--------------------------------------------------------------------------------------------------------




--------------------------------------- Iteration      4(   2)  ---------------------------------------


    POTLOK:  cpu time      0.0715: real time      0.0722
    SETDIJ:  cpu time      0.0057: real time      0.0057
    EDDIAG:  cpu time      5.4022: real time      5.4347
  RMM-DIIS:  cpu time     10.5626: real time     10.6507
    ORTHCH:  cpu time      1.4827: real time      1.4923
       DOS:  cpu time      0.0037: real time      0.0037
    CHARGE:  cpu time      0.4593: real time      0.4615
    MIXING:  cpu time      0.0021: real time      0.0021
    --------------------------------------------
      LOOP:  cpu time     17.9898: real time     18.1230

 eigenvalue-minimisations  :  6915
 total energy-change (2. order) :-0.1018091E+00  (-0.9241844E-01)
 number of electron    1031.0001695 magnetization 
 augmentation part      248.2230113 magnetization 

 eigenvalues of (default mixing * dielectric matrix)
  average eigenvalue GAMMA=   0.3352
  0.3352

  free energy =  -0.576301107556E+03  energy without entropy=  -0.576295861396E+03


--------------------------------------------------------------------------------------------------------




--------------------------------------- Iteration      4(   3)  ---------------------------------------


    POTLOK:  cpu time      0.0614: real time      0.0622
    SETDIJ:  cpu time      0.0062: real time      0.0062
    EDDIAG:  cpu time      5.4091: real time      5.4397
  RMM-DIIS:  cpu time      9.3894: real time      9.4698
    ORTHCH:  cpu time      1.5316: real time      1.5436
       DOS:  cpu time      0.0047: real time      0.0047
    CHARGE:  cpu time      0.4743: real time      0.4767
    MIXING:  cpu time      0.0021: real time      0.0021
    --------------------------------------------
      LOOP:  cpu time     16.8786: real time     17.0051

 eigenvalue-minimisations  :  6194
 total energy-change (2. order) :-0.4942690E-02  (-0.1584610E-01)
 number of electron    1031.0001695 magnetization 
 augmentation part      248.2230125 magnetization 

 eigenvalues of (default mixing * dielectric matrix)
  average eigenvalue GAMMA=   0.4068
  0.7159  0.0977

  free energy =  -0.576306050246E+03  energy without entropy=  -0.576300893668E+03


--------------------------------------------------------------------------------------------------------




--------------------------------------- Iteration      4(   4)  ---------------------------------------


    POTLOK:  cpu time      0.0766: real time      0.0776
    SETDIJ:  cpu time      0.0067: real time      0.0067
    EDDIAG:  cpu time      5.4840: real time      5.5151
  RMM-DIIS:  cpu time     12.1126: real time     12.2129
    ORTHCH:  cpu time      1.5462: real time      1.5567
       DOS:  cpu time      0.0144: real time      0.0145
    CHARGE:  cpu time      0.4693: real time      0.4716
    MIXING:  cpu time      0.0024: real time      0.0024
    --------------------------------------------
      LOOP:  cpu time     19.7121: real time     19.8574

 eigenvalue-minimisations  :  7799
 total energy-change (2. order) : 0.6415946E-03  (-0.3676061E-02)
 number of electron    1031.0001695 magnetization 
 augmentation part      248.2217966 magnetization 

 eigenvalues of (default mixing * dielectric matrix)
  average eigenvalue GAMMA=   0.4015
  0.8112  0.0992  0.2941

  free energy =  -0.576305408652E+03  energy without entropy=  -0.576299897152E+03


--------------------------------------------------------------------------------------------------------




--------------------------------------- Iteration      4(   5)  ---------------------------------------


    POTLOK:  cpu time      0.0620: real time      0.0641
    SETDIJ:  cpu time      0.0062: real time      0.0062
    EDDIAG:  cpu time      5.4493: real time      5.4791
  RMM-DIIS:  cpu time      9.8935: real time      9.9792
    ORTHCH:  cpu time      1.5280: real time      1.5384
       DOS:  cpu time      0.0102: real time      0.0103
    CHARGE:  cpu time      0.4687: real time      0.4710
    MIXING:  cpu time      0.0023: real time      0.0023
    --------------------------------------------
      LOOP:  cpu time     17.4201: real time     17.5506

 eigenvalue-minimisations  :  6421
 total energy-change (2. order) : 0.3165290E-02  (-0.4258524E-03)
 number of electron    1031.0001695 magnetization 
 augmentation part      248.2293484 magnetization 

 eigenvalues of (default mixing * dielectric matrix)
  average eigenvalue GAMMA=   0.6643
  1.1783  1.1783  0.0973  0.2032

  free energy =  -0.576302243362E+03  energy without entropy=  -0.576296918398E+03


--------------------------------------------------------------------------------------------------------




--------------------------------------- Iteration      4(   6)  ---------------------------------------


    POTLOK:  cpu time      0.0763: real time      0.0770
    SETDIJ:  cpu time      0.0063: real time      0.0064
    EDDIAG:  cpu time      5.5313: real time      5.5615
  RMM-DIIS:  cpu time     10.2386: real time     10.3250
    ORTHCH:  cpu time      1.5428: real time      1.5529
       DOS:  cpu time      0.0155: real time      0.0156
    CHARGE:  cpu time      0.4664: real time      0.4687
    MIXING:  cpu time      0.0024: real time      0.0024
    --------------------------------------------
      LOOP:  cpu time     17.8797: real time     18.0095

 eigenvalue-minimisations  :  6652
 total energy-change (2. order) :-0.1780697E-03  (-0.5710416E-03)
 number of electron    1031.0001695 magnetization 
 augmentation part      248.2327449 magnetization 

 eigenvalues of (default mixing * dielectric matrix)
  average eigenvalue GAMMA=   0.6815
  1.4213  1.4213  0.0975  0.1978  0.2697

  free energy =  -0.576302421432E+03  energy without entropy=  -0.576296934098E+03


--------------------------------------------------------------------------------------------------------




--------------------------------------- Iteration      4(   7)  ---------------------------------------


    POTLOK:  cpu time      0.0780: real time      0.0789
    SETDIJ:  cpu time      0.0064: real time      0.0064
    EDDIAG:  cpu time      5.4965: real time      5.5284
  RMM-DIIS:  cpu time     10.5277: real time     10.6155
    ORTHCH:  cpu time      1.5623: real time      1.5725
       DOS:  cpu time      0.0149: real time      0.0150
    CHARGE:  cpu time      0.4852: real time      0.4878
    MIXING:  cpu time      0.0025: real time      0.0025
    --------------------------------------------
      LOOP:  cpu time     18.1735: real time     18.3071

 eigenvalue-minimisations  :  6820
 total energy-change (2. order) : 0.6131978E-03  (-0.4485319E-03)
 number of electron    1031.0001695 magnetization 
 augmentation part      248.2349992 magnetization 

 eigenvalues of (default mixing * dielectric matrix)
  average eigenvalue GAMMA=   0.6817
  1.5128  1.0247  1.0247  0.0974  0.2004  0.2303

  free energy =  -0.576301808234E+03  energy without entropy=  -0.576296264240E+03


--------------------------------------------------------------------------------------------------------




--------------------------------------- Iteration      4(   8)  ---------------------------------------


    POTLOK:  cpu time      0.0876: real time      0.0886
    SETDIJ:  cpu time      0.0066: real time      0.0067
    EDDIAG:  cpu time      5.4768: real time      5.5082
  RMM-DIIS:  cpu time      9.5778: real time      9.6598
    ORTHCH:  cpu time      1.5725: real time      1.5831
       DOS:  cpu time      0.0050: real time      0.0050
    CHARGE:  cpu time      0.4715: real time      0.4740
    MIXING:  cpu time      0.0026: real time      0.0026
    --------------------------------------------
      LOOP:  cpu time     17.2002: real time     17.3279

 eigenvalue-minimisations  :  6124
 total energy-change (2. order) : 0.1791718E-03  (-0.5923531E-04)
 number of electron    1031.0001695 magnetization 
 augmentation part      248.2314302 magnetization 

 eigenvalues of (default mixing * dielectric matrix)
  average eigenvalue GAMMA=   0.6330
  1.5549  1.0261  1.0261  0.0974  0.2686  0.2686  0.1895

  free energy =  -0.576301629062E+03  energy without entropy=  -0.576296158161E+03


--------------------------------------------------------------------------------------------------------




--------------------------------------- Iteration      4(   9)  ---------------------------------------


    POTLOK:  cpu time      0.0697: real time      0.0730
    SETDIJ:  cpu time      0.0062: real time      0.0062
    EDDIAG:  cpu time      5.4368: real time      5.4685
  RMM-DIIS:  cpu time      9.6352: real time      9.7156
    ORTHCH:  cpu time      1.5518: real time      1.5625
       DOS:  cpu time      0.0037: real time      0.0037
    CHARGE:  cpu time      0.4649: real time      0.4672
    MIXING:  cpu time      0.0028: real time      0.0028
    --------------------------------------------
      LOOP:  cpu time     17.1711: real time     17.2995

 eigenvalue-minimisations  :  6173
 total energy-change (2. order) : 0.1824598E-03  (-0.2213601E-04)
 number of electron    1031.0001695 magnetization 
 augmentation part      248.2302723 magnetization 

 eigenvalues of (default mixing * dielectric matrix)
  average eigenvalue GAMMA=   0.7209
  1.8197  1.0997  1.0997  1.0073  0.0974  0.2521  0.2015  0.1900

  free energy =  -0.576301446602E+03  energy without entropy=  -0.576295953491E+03


--------------------------------------------------------------------------------------------------------




--------------------------------------- Iteration      4(  10)  ---------------------------------------


    POTLOK:  cpu time      0.0637: real time      0.0649
    SETDIJ:  cpu time      0.0061: real time      0.0061
    EDDIAG:  cpu time      5.4127: real time      5.4429
  RMM-DIIS:  cpu time     10.5479: real time     10.6397
    ORTHCH:  cpu time      1.5227: real time      1.5350
       DOS:  cpu time      0.0040: real time      0.0040
    CHARGE:  cpu time      0.4727: real time      0.4754
    MIXING:  cpu time      0.0027: real time      0.0028
    --------------------------------------------
      LOOP:  cpu time     18.0325: real time     18.1708

 eigenvalue-minimisations  :  6743
 total energy-change (2. order) :-0.1239474E-05  (-0.3766650E-04)
 number of electron    1031.0001695 magnetization 
 augmentation part      248.2301050 magnetization 

 eigenvalues of (default mixing * dielectric matrix)
  average eigenvalue GAMMA=   0.6923
  1.9965  1.0992  1.0992  1.0484  0.0974  0.2760  0.2355  0.1933  0.1851

  free energy =  -0.576301447842E+03  energy without entropy=  -0.576295977180E+03


--------------------------------------------------------------------------------------------------------




--------------------------------------- Iteration      4(  11)  ---------------------------------------


    POTLOK:  cpu time      0.0632: real time      0.0639
    SETDIJ:  cpu time      0.0065: real time      0.0065
    EDDIAG:  cpu time      5.5511: real time      5.5830
  RMM-DIIS:  cpu time      9.2226: real time      9.3000
    ORTHCH:  cpu time      1.4991: real time      1.5096
       DOS:  cpu time      0.0053: real time      0.0053
    CHARGE:  cpu time      0.4829: real time      0.4856
    MIXING:  cpu time      0.0030: real time      0.0030
    --------------------------------------------
      LOOP:  cpu time     16.8336: real time     16.9569

 eigenvalue-minimisations  :  5889
 total energy-change (2. order) : 0.6802203E-04  (-0.1048974E-04)
 number of electron    1031.0001695 magnetization 
 augmentation part      248.2302545 magnetization 

 eigenvalues of (default mixing * dielectric matrix)
  average eigenvalue GAMMA=   0.6953
  2.2128  1.0717  1.0717  1.0547  0.5807  0.0974  0.2544  0.2287  0.1979  0.1834

  free energy =  -0.576301379820E+03  energy without entropy=  -0.576295921769E+03


--------------------------------------------------------------------------------------------------------




--------------------------------------- Iteration      4(  12)  ---------------------------------------


    POTLOK:  cpu time      0.0610: real time      0.0618
    SETDIJ:  cpu time      0.0059: real time      0.0059
    EDDIAG:  cpu time      5.4116: real time      5.4436
  RMM-DIIS:  cpu time      6.6227: real time      6.6786
    ORTHCH:  cpu time      1.4738: real time      1.4832
       DOS:  cpu time      0.0047: real time      0.0047
    --------------------------------------------
      LOOP:  cpu time     13.5797: real time     13.6779

 eigenvalue-minimisations  :  4174
 total energy-change (2. order) :-0.2434070E-05  (-0.2772898E-05)
 number of electron    1031.0001695 magnetization 
 augmentation part      248.2302545 magnetization 

  free energy =  -0.576301382254E+03  energy without entropy=  -0.576295933112E+03


--------------------------------------------------------------------------------------------------------




------------------------ aborting loop because EDIFF is reached ----------------------------------------





 total charge

# of ion       s       p       d       tot
------------------------------------------
    1        2.212   6.044   5.304  13.560
    2        2.211   6.044   5.304  13.559
    3        2.211   6.044   5.304  13.559
    4        2.211   6.044   5.303  13.558
    5        2.212   6.044   5.304  13.559
    6        2.211   6.044   5.303  13.558
    7        2.211   6.044   5.303  13.558
    8        2.211   6.044   5.304  13.559
    9        2.212   6.044   5.303  13.559
   10        2.211   6.044   5.304  13.559
   11        2.211   6.044   5.303  13.558
   12        2.211   6.044   5.303  13.558
   13        2.211   6.044   5.302  13.557
   14        2.211   6.044   5.305  13.559
   15        2.212   6.044   5.302  13.557
   16        2.212   6.044   5.303  13.558
   17        2.219   6.103   5.276  13.598
   18        2.219   6.103   5.276  13.598
   19        2.219   6.103   5.274  13.596
   20        2.218   6.102   5.270  13.591
   21        2.218   6.103   5.275  13.596
   22        2.218   6.103   5.275  13.596
   23        2.219   6.103   5.274  13.596
   24        2.218   6.103   5.275  13.596
   25        2.219   6.103   5.274  13.596
   26        2.219   6.103   5.274  13.596
   27        2.218   6.103   5.275  13.596
   28        2.219   6.103   5.275  13.596
   29        2.219   6.103   5.275  13.596
   30        2.219   6.103   5.274  13.596
   31        2.218   6.103   5.274  13.595
   32        2.219   6.103   5.275  13.596
   33        2.222   6.110   5.284  13.616
   34        2.223   6.113   5.282  13.618
   35        2.222   6.110   5.283  13.615
   36        2.221   6.107   5.280  13.609
   37        2.222   6.110   5.284  13.616
   38        2.221   6.110   5.285  13.616
   39        2.221   6.107   5.280  13.609
   40        2.222   6.110   5.283  13.615
   41        2.222   6.110   5.282  13.615
   42        2.222   6.107   5.288  13.617
   43        2.223   6.111   5.283  13.616
   44        2.223   6.111   5.283  13.616
   45        2.219   6.107   5.271  13.597
   46        2.222   6.107   5.288  13.617
   47        2.223   6.111   5.282  13.616
   48        2.223   6.111   5.282  13.616
   49        2.218   6.052   5.315  13.585
   50        2.218   6.052   5.315  13.585
   51        2.216   6.049   5.318  13.582
   52        2.216   6.050   5.341  13.607
   53        2.218   6.053   5.314  13.585
   54        2.218   6.053   5.313  13.585
   55        2.216   6.049   5.318  13.582
   56        2.216   6.050   5.316  13.582
   57        2.216   6.049   5.314  13.579
   58        2.205   6.075   5.284  13.563
   59        2.216   6.050   5.315  13.581
   60        2.217   6.049   5.317  13.582
   61        2.205   6.075   5.283  13.563
   62        2.216   6.049   5.314  13.579
   63        2.216   6.047   5.343  13.607
   64        2.217   6.049   5.316  13.582
   65        1.216   2.633   0.000   3.849
   66        0.637   0.084   0.000   0.721
   67        0.634   0.082   0.000   0.716
--------------------------------------------------
tot        144.362 391.747 338.799 874.908
 
    CHARGE:  cpu time      0.4496: real time      0.4517
    FORLOC:  cpu time      0.0315: real time      0.0316
    FORNL :  cpu time      2.6196: real time      2.6339
    STRESS:  cpu time      7.9661: real time      8.0096
    FORCOR:  cpu time      0.0647: real time      0.0652
    FORHAR:  cpu time      0.0288: real time      0.0289
    MIXING:  cpu time      0.0029: real time      0.0029
    OFIELD:  cpu time      0.0000: real time      0.0000

  FORCE on cell =-STRESS in cart. coord.  units (eV):
  Direction    XX          YY          ZZ          XY          YZ          ZX
  --------------------------------------------------------------------------------------
  Alpha Z  3956.67891  3956.67891  3956.67891
  Ewald  324425.26744324378.06429************     0.17517     5.10447     0.04191
  Hartree368106.87420368059.46177************     0.06384     2.87804     0.03369
  E(xc)   -5604.32894 -5604.07607 -5615.78604     0.00024    -0.00805    -0.00011
  Local  ************************739444.85214    -0.22186    -6.94588    -0.07917
  n-local  2352.80488  2353.50340  2310.47310    -0.00011    -0.06558     0.00415
  augment  5363.46400  5363.28071  5349.19191     0.00009    -0.23389    -0.00151
  Kinetic 20413.27559 20400.75380 20414.02647    -0.01721    -0.68195     0.01284
  Fock        0.00000     0.00000     0.00000     0.00000     0.00000     0.00000
  -------------------------------------------------------------------------------------
  Total     -64.39542   -62.83779   -23.53608     0.00016     0.04716     0.01179
  in kB     -57.41738   -56.02854   -20.98566     0.00015     0.04205     0.01051
  external pressure =      -44.81 kB  Pullay stress =        0.00 kB



--------------------------------------------------------------------------------------------------------



  FREE ENERGIE OF THE ION-ELECTRON SYSTEM (eV)
  ---------------------------------------------------
  free  energy   TOTEN  =      -576.30138225 eV

  energy  without entropy=     -576.29593311  energy(sigma->0) =     -576.29865768
 
 d Force =-0.1134524E-02[-0.883E-02, 0.657E-02]  d Energy =-0.1015160E-02-0.119E-03
 d Force = 0.6209618E+03[ 0.620E+03, 0.622E+03]  d Ewald  = 0.6209621E+03-0.276E-03


--------------------------------------------------------------------------------------------------------


    POTLOK:  cpu time      0.0765: real time      0.0770


--------------------------------------------------------------------------------------------------------




--------------------------------------------------------------------------------------------------------


    WAVPRE:  cpu time      0.0279: real time      0.0297
    FEWALD:  cpu time      0.0015: real time      0.0015

 real space projection operators:
  total allocation   :      15912.30 KBytes
  max/ min on nodes  :       1282.94        670.88

    ORTHCH:  cpu time      2.3664: real time      2.3806
     LOOP+:  cpu time    252.8025: real time    255.2915


--------------------------------------- Ionic step        5  -------------------------------------------




--------------------------------------- Iteration      5(   1)  ---------------------------------------


    POTLOK:  cpu time      0.0564: real time      0.0577
    SETDIJ:  cpu time      0.0070: real time      0.0071
     EDDAV:  cpu time     48.0957: real time     48.5122
       DOS:  cpu time      0.0188: real time      0.0189
    CHARGE:  cpu time      0.4726: real time      0.4750
    MIXING:  cpu time      0.0035: real time      0.0035
    --------------------------------------------
      LOOP:  cpu time     48.6540: real time     49.0744

 eigenvalue-minimisations  :  6504
 total energy-change (2. order) : 0.3096518E-01  (-0.2664629E+00)
 number of electron    1031.0001722 magnetization 
 augmentation part      248.2368796 magnetization 

  free energy =  -0.576270414642E+03  energy without entropy=  -0.576264710813E+03


--------------------------------------------------------------------------------------------------------




--------------------------------------- Iteration      5(   2)  ---------------------------------------


    POTLOK:  cpu time      0.0654: real time      0.0687
    SETDIJ:  cpu time      0.0067: real time      0.0067
    EDDIAG:  cpu time      5.4394: real time      5.4710
  RMM-DIIS:  cpu time     10.7187: real time     10.8082
    ORTHCH:  cpu time      1.5312: real time      1.5431
       DOS:  cpu time      0.0035: real time      0.0035
    CHARGE:  cpu time      0.4897: real time      0.4924
    MIXING:  cpu time      0.0022: real time      0.0022
    --------------------------------------------
      LOOP:  cpu time     18.2567: real time     18.3960

 eigenvalue-minimisations  :  6907
 total energy-change (2. order) :-0.3669891E-01  (-0.3074489E-01)
 number of electron    1031.0001722 magnetization 
 augmentation part      248.2340900 magnetization 

 eigenvalues of (default mixing * dielectric matrix)
  average eigenvalue GAMMA=   0.2624
  0.2624

  free energy =  -0.576307113549E+03  energy without entropy=  -0.576301319634E+03


--------------------------------------------------------------------------------------------------------




--------------------------------------- Iteration      5(   3)  ---------------------------------------


    POTLOK:  cpu time      0.0629: real time      0.0637
    SETDIJ:  cpu time      0.0064: real time      0.0065
    EDDIAG:  cpu time      5.4593: real time      5.4906
  RMM-DIIS:  cpu time      9.4820: real time      9.5614
    ORTHCH:  cpu time      1.5550: real time      1.5651
       DOS:  cpu time      0.0038: real time      0.0039
    CHARGE:  cpu time      0.4758: real time      0.4784
    MIXING:  cpu time      0.0022: real time      0.0022
    --------------------------------------------
      LOOP:  cpu time     17.0476: real time     17.1717

 eigenvalue-minimisations  :  6195
 total energy-change (2. order) : 0.2390963E-02  (-0.5149023E-02)
 number of electron    1031.0001722 magnetization 
 augmentation part      248.2357906 magnetization 

 eigenvalues of (default mixing * dielectric matrix)
  average eigenvalue GAMMA=   0.3609
  0.6237  0.0982

  free energy =  -0.576304722587E+03  energy without entropy=  -0.576298808783E+03


--------------------------------------------------------------------------------------------------------




--------------------------------------- Iteration      5(   4)  ---------------------------------------


    POTLOK:  cpu time      0.0600: real time      0.0640
    SETDIJ:  cpu time      0.0066: real time      0.0066
    EDDIAG:  cpu time      5.4982: real time      5.5302
  RMM-DIIS:  cpu time     12.0329: real time     12.1344
    ORTHCH:  cpu time      1.5171: real time      1.5273
       DOS:  cpu time      0.0059: real time      0.0060
    CHARGE:  cpu time      0.4581: real time      0.4604
    MIXING:  cpu time      0.0022: real time      0.0022
    --------------------------------------------
      LOOP:  cpu time     19.5811: real time     19.7311

 eigenvalue-minimisations  :  7740
 total energy-change (2. order) :-0.3970666E-03  (-0.1212828E-02)
 number of electron    1031.0001722 magnetization 
 augmentation part      248.2362371 magnetization 

 eigenvalues of (default mixing * dielectric matrix)
  average eigenvalue GAMMA=   0.3756
  0.7418  0.2843  0.1005

  free energy =  -0.576305119653E+03  energy without entropy=  -0.576299491204E+03


--------------------------------------------------------------------------------------------------------




--------------------------------------- Iteration      5(   5)  ---------------------------------------


    POTLOK:  cpu time      0.0639: real time      0.0652
    SETDIJ:  cpu time      0.0059: real time      0.0059
    EDDIAG:  cpu time      5.4098: real time      5.4409
  RMM-DIIS:  cpu time      9.6840: real time      9.7647
    ORTHCH:  cpu time      1.5109: real time      1.5212
       DOS:  cpu time      0.0037: real time      0.0037
    CHARGE:  cpu time      0.4549: real time      0.4572
    MIXING:  cpu time      0.0024: real time      0.0024
    --------------------------------------------
      LOOP:  cpu time     17.1357: real time     17.2613

 eigenvalue-minimisations  :  6201
 total energy-change (2. order) : 0.1025647E-02  (-0.1398848E-03)
 number of electron    1031.0001722 magnetization 
 augmentation part      248.2319902 magnetization 

 eigenvalues of (default mixing * dielectric matrix)
  average eigenvalue GAMMA=   0.6543
  1.1568  1.1568  0.0985  0.2053

  free energy =  -0.576304094007E+03  energy without entropy=  -0.576298325055E+03


--------------------------------------------------------------------------------------------------------




--------------------------------------- Iteration      5(   6)  ---------------------------------------


    POTLOK:  cpu time      0.0630: real time      0.0639
    SETDIJ:  cpu time      0.0060: real time      0.0061
    EDDIAG:  cpu time      5.4136: real time      5.4458
  RMM-DIIS:  cpu time     10.5269: real time     10.6155
    ORTHCH:  cpu time      1.5232: real time      1.5358
       DOS:  cpu time      0.0247: real time      0.0249
    CHARGE:  cpu time      0.4733: real time      0.4759
    MIXING:  cpu time      0.0024: real time      0.0024
    --------------------------------------------
      LOOP:  cpu time     18.0331: real time     18.1703

 eigenvalue-minimisations  :  6720
 total energy-change (2. order) :-0.2018836E-03  (-0.1938348E-03)
 number of electron    1031.0001722 magnetization 
 augmentation part      248.2304999 magnetization 

 eigenvalues of (default mixing * dielectric matrix)
  average eigenvalue GAMMA=   0.6768
  1.4153  1.4153  0.0987  0.2598  0.1949

  free energy =  -0.576304295890E+03  energy without entropy=  -0.576298639728E+03


--------------------------------------------------------------------------------------------------------




--------------------------------------- Iteration      5(   7)  ---------------------------------------


    POTLOK:  cpu time      0.0631: real time      0.0638
    SETDIJ:  cpu time      0.0068: real time      0.0069
    EDDIAG:  cpu time      5.5328: real time      5.5657
  RMM-DIIS:  cpu time     10.6403: real time     10.7288
    ORTHCH:  cpu time      1.4820: real time      1.4915
       DOS:  cpu time      0.0037: real time      0.0037
    CHARGE:  cpu time      0.4505: real time      0.4528
    MIXING:  cpu time      0.0025: real time      0.0025
    --------------------------------------------
      LOOP:  cpu time     18.1817: real time     18.3158

 eigenvalue-minimisations  :  6893
 total energy-change (2. order) : 0.3115715E-03  (-0.1454161E-03)
 number of electron    1031.0001722 magnetization 
 augmentation part      248.2296563 magnetization 

 eigenvalues of (default mixing * dielectric matrix)
  average eigenvalue GAMMA=   0.6739
  1.4583  1.0257  1.0257  0.0986  0.2016  0.2334

  free energy =  -0.576303984319E+03  energy without entropy=  -0.576298349512E+03


--------------------------------------------------------------------------------------------------------




--------------------------------------- Iteration      5(   8)  ---------------------------------------


    POTLOK:  cpu time      0.0610: real time      0.0622
    SETDIJ:  cpu time      0.0059: real time      0.0059
    EDDIAG:  cpu time      5.3706: real time      5.3999
  RMM-DIIS:  cpu time      8.5444: real time      8.6155
    ORTHCH:  cpu time      1.5331: real time      1.5433
       DOS:  cpu time      0.0033: real time      0.0033
    CHARGE:  cpu time      0.4775: real time      0.4799
    MIXING:  cpu time      0.0025: real time      0.0025
    --------------------------------------------
      LOOP:  cpu time     15.9983: real time     16.1126

 eigenvalue-minimisations  :  5547
 total energy-change (2. order) : 0.5724910E-04  (-0.1760762E-04)
 number of electron    1031.0001722 magnetization 
 augmentation part      248.2314179 magnetization 

 eigenvalues of (default mixing * dielectric matrix)
  average eigenvalue GAMMA=   0.6278
  1.5234  1.0232  1.0232  0.0987  0.2668  0.2668  0.1921

  free energy =  -0.576303927070E+03  energy without entropy=  -0.576298261733E+03


--------------------------------------------------------------------------------------------------------




--------------------------------------- Iteration      5(   9)  ---------------------------------------


    POTLOK:  cpu time      0.0718: real time      0.0731
    SETDIJ:  cpu time      0.0062: real time      0.0062
    EDDIAG:  cpu time      5.4169: real time      5.4471
  RMM-DIIS:  cpu time      8.2776: real time      8.3479
    ORTHCH:  cpu time      1.4769: real time      1.4862
       DOS:  cpu time      0.0038: real time      0.0038
    CHARGE:  cpu time      0.4678: real time      0.4702
    MIXING:  cpu time      0.0027: real time      0.0027
    --------------------------------------------
      LOOP:  cpu time     15.7238: real time     15.8373

 eigenvalue-minimisations  :  5335
 total energy-change (2. order) : 0.4738464E-04  (-0.7215100E-05)
 number of electron    1031.0001722 magnetization 
 augmentation part      248.2320111 magnetization 

 eigenvalues of (default mixing * dielectric matrix)
  average eigenvalue GAMMA=   0.7230
  1.8171  1.0948  1.0948  1.0258  0.0987  0.2537  0.1941  0.2048

  free energy =  -0.576303879685E+03  energy without entropy=  -0.576298213384E+03


--------------------------------------------------------------------------------------------------------




--------------------------------------- Iteration      5(  10)  ---------------------------------------


    POTLOK:  cpu time      0.0622: real time      0.0630
    SETDIJ:  cpu time      0.0061: real time      0.0061
    EDDIAG:  cpu time      5.5534: real time      5.5847
  RMM-DIIS:  cpu time      9.6613: real time      9.7403
    ORTHCH:  cpu time      1.4949: real time      1.5046
       DOS:  cpu time      0.0041: real time      0.0041
    CHARGE:  cpu time      0.4544: real time      0.4566
    MIXING:  cpu time      0.0028: real time      0.0029
    --------------------------------------------
      LOOP:  cpu time     17.2392: real time     17.3622

 eigenvalue-minimisations  :  6166
 total energy-change (2. order) :-0.2521236E-05  (-0.1317908E-04)
 number of electron    1031.0001722 magnetization 
 augmentation part      248.2320114 magnetization 

 eigenvalues of (default mixing * dielectric matrix)
  average eigenvalue GAMMA=   0.6908
  1.9847  1.0945  1.0945  1.0563  0.0987  0.2680  0.2354  0.1927  0.1927

  free energy =  -0.576303882206E+03  energy without entropy=  -0.576298209849E+03


--------------------------------------------------------------------------------------------------------




--------------------------------------- Iteration      5(  11)  ---------------------------------------


    POTLOK:  cpu time      0.0614: real time      0.0622
    SETDIJ:  cpu time      0.0064: real time      0.0064
    EDDIAG:  cpu time      5.6069: real time      5.6406
  RMM-DIIS:  cpu time      7.5440: real time      7.6076
    ORTHCH:  cpu time      1.4904: real time      1.5006
       DOS:  cpu time      0.0046: real time      0.0046
    CHARGE:  cpu time      0.4555: real time      0.4577
    MIXING:  cpu time      0.0028: real time      0.0028
    --------------------------------------------
      LOOP:  cpu time     15.1721: real time     15.2825

 eigenvalue-minimisations  :  4670
 total energy-change (2. order) : 0.1955641E-04  (-0.3377868E-05)
 number of electron    1031.0001722 magnetization 
 augmentation part      248.2319092 magnetization 

 eigenvalues of (default mixing * dielectric matrix)
  average eigenvalue GAMMA=   0.6992
  2.2222  1.0663  1.0663  1.0605  0.6132  0.0987  0.2539  0.2261  0.1989  0.1857

  free energy =  -0.576303862650E+03  energy without entropy=  -0.576298178855E+03


--------------------------------------------------------------------------------------------------------




--------------------------------------- Iteration      5(  12)  ---------------------------------------


    POTLOK:  cpu time      0.0616: real time      0.0626
    SETDIJ:  cpu time      0.0059: real time      0.0059
    EDDIAG:  cpu time      5.4535: real time      5.4844
  RMM-DIIS:  cpu time      5.7689: real time      5.8163
    ORTHCH:  cpu time      1.5216: real time      1.5315
       DOS:  cpu time      0.0180: real time      0.0180
    --------------------------------------------
      LOOP:  cpu time     12.8294: real time     12.9187

 eigenvalue-minimisations  :  3541
 total energy-change (2. order) :-0.8828938E-06  (-0.5841841E-06)
 number of electron    1031.0001722 magnetization 
 augmentation part      248.2319092 magnetization 

  free energy =  -0.576303863533E+03  energy without entropy=  -0.576298175298E+03


--------------------------------------------------------------------------------------------------------




------------------------ aborting loop because EDIFF is reached ----------------------------------------





 total charge

# of ion       s       p       d       tot
------------------------------------------
    1        2.212   6.044   5.303  13.559
    2        2.211   6.044   5.304  13.559
    3        2.211   6.044   5.305  13.559
    4        2.211   6.044   5.303  13.558
    5        2.212   6.044   5.304  13.559
    6        2.211   6.044   5.303  13.558
    7        2.211   6.044   5.303  13.558
    8        2.211   6.044   5.305  13.560
    9        2.212   6.044   5.303  13.559
   10        2.211   6.044   5.305  13.559
   11        2.211   6.044   5.303  13.558
   12        2.211   6.044   5.303  13.559
   13        2.211   6.044   5.303  13.558
   14        2.211   6.044   5.305  13.559
   15        2.212   6.044   5.303  13.559
   16        2.212   6.044   5.302  13.558
   17        2.219   6.103   5.276  13.597
   18        2.219   6.103   5.276  13.597
   19        2.219   6.103   5.274  13.595
   20        2.218   6.102   5.271  13.591
   21        2.218   6.103   5.275  13.595
   22        2.218   6.103   5.275  13.595
   23        2.219   6.103   5.274  13.596
   24        2.218   6.103   5.275  13.596
   25        2.219   6.103   5.274  13.596
   26        2.219   6.103   5.274  13.596
   27        2.218   6.102   5.274  13.594
   28        2.219   6.103   5.275  13.596
   29        2.219   6.103   5.274  13.596
   30        2.219   6.103   5.274  13.595
   31        2.218   6.103   5.274  13.595
   32        2.219   6.103   5.275  13.596
   33        2.222   6.111   5.284  13.617
   34        2.224   6.113   5.283  13.620
   35        2.223   6.111   5.284  13.617
   36        2.221   6.108   5.281  13.610
   37        2.222   6.111   5.284  13.617
   38        2.222   6.110   5.285  13.616
   39        2.221   6.108   5.281  13.610
   40        2.223   6.111   5.284  13.617
   41        2.223   6.110   5.284  13.617
   42        2.222   6.108   5.288  13.618
   43        2.223   6.111   5.283  13.617
   44        2.223   6.111   5.283  13.617
   45        2.219   6.107   5.271  13.598
   46        2.222   6.108   5.288  13.618
   47        2.223   6.111   5.283  13.617
   48        2.223   6.111   5.283  13.617
   49        2.218   6.053   5.316  13.587
   50        2.218   6.053   5.316  13.587
   51        2.217   6.049   5.319  13.585
   52        2.216   6.050   5.343  13.609
   53        2.219   6.054   5.314  13.587
   54        2.219   6.054   5.314  13.587
   55        2.217   6.049   5.319  13.585
   56        2.217   6.050   5.317  13.583
   57        2.216   6.049   5.316  13.582
   58        2.205   6.075   5.285  13.565
   59        2.217   6.050   5.317  13.584
   60        2.217   6.050   5.318  13.584
   61        2.205   6.075   5.285  13.565
   62        2.216   6.049   5.316  13.582
   63        2.216   6.048   5.345  13.609
   64        2.217   6.050   5.318  13.585
   65        1.216   2.631   0.000   3.847
   66        0.636   0.083   0.000   0.719
   67        0.634   0.082   0.000   0.716
--------------------------------------------------
tot        144.369 391.757 338.832 874.958
 
    CHARGE:  cpu time      0.4636: real time      0.4660
    FORLOC:  cpu time      0.0163: real time      0.0163
    FORNL :  cpu time      2.6576: real time      2.6730
    STRESS:  cpu time      8.0076: real time      8.0549
    FORCOR:  cpu time      0.0694: real time      0.0698
    FORHAR:  cpu time      0.0278: real time      0.0280
    MIXING:  cpu time      0.0030: real time      0.0030
    OFIELD:  cpu time      0.0001: real time      0.0001

  FORCE on cell =-STRESS in cart. coord.  units (eV):
  Direction    XX          YY          ZZ          XY          YZ          ZX
  --------------------------------------------------------------------------------------
  Alpha Z  3956.67891  3956.67891  3956.67891
  Ewald  324788.85191324740.87380************     0.21082     5.25159     0.03678
  Hartree368464.35960368416.50737************     0.09811     3.06896     0.02513
  E(xc)   -5604.52098 -5604.26752 -5615.94225     0.00028    -0.00761    -0.00013
  Local  ************************740175.20895    -0.30478    -7.32122    -0.07900
  n-local  2353.37565  2354.08006  2311.56076     0.00033    -0.06155     0.00384
  augment  5363.49571  5363.38517  5348.96964     0.00192    -0.24635     0.00091
  Kinetic 20413.99575 20401.69928 20414.87805    -0.00836    -0.67340     0.02182
  Fock        0.00000     0.00000     0.00000     0.00000     0.00000     0.00000
  -------------------------------------------------------------------------------------
  Total     -63.69781   -62.09479   -21.72975    -0.00169     0.01041     0.00934
  in kB     -56.79537   -55.36605   -19.37507    -0.00151     0.00929     0.00833
  external pressure =      -43.85 kB  Pullay stress =        0.00 kB



--------------------------------------------------------------------------------------------------------



  FREE ENERGIE OF THE ION-ELECTRON SYSTEM (eV)
  ---------------------------------------------------
  free  energy   TOTEN  =      -576.30386353 eV

  energy  without entropy=     -576.29817530  energy(sigma->0) =     -576.30101942
 
 d Force = 0.2429837E-02[-0.208E-03, 0.507E-02]  d Energy = 0.2481279E-02-0.514E-04
 d Force =-0.3560739E+03[-0.356E+03,-0.356E+03]  d Ewald  =-0.3560740E+03 0.520E-04


--------------------------------------------------------------------------------------------------------


    POTLOK:  cpu time      0.0773: real time      0.0778


--------------------------------------------------------------------------------------------------------




--------------------------------------------------------------------------------------------------------


    WAVPRE:  cpu time      0.0277: real time      0.0296
    FEWALD:  cpu time      0.0014: real time      0.0014

 real space projection operators:
  total allocation   :      15911.30 KBytes
  max/ min on nodes  :       1282.73        670.59

    ORTHCH:  cpu time      2.4648: real time      2.4804
     LOOP+:  cpu time    247.6892: real time    249.5588


--------------------------------------- Ionic step        6  -------------------------------------------




--------------------------------------- Iteration      6(   1)  ---------------------------------------


    POTLOK:  cpu time      0.0746: real time      0.0763
    SETDIJ:  cpu time      0.0070: real time      0.0070
     EDDAV:  cpu time     47.8804: real time     48.3003
       DOS:  cpu time      0.0142: real time      0.0142
    CHARGE:  cpu time      0.4576: real time      0.4601
    MIXING:  cpu time      0.0032: real time      0.0032
    --------------------------------------------
      LOOP:  cpu time     48.4369: real time     48.8612

 eigenvalue-minimisations  :  6504
 total energy-change (2. order) : 0.4068809E-02  (-0.5128243E-01)
 number of electron    1031.0001713 magnetization 
 augmentation part      248.2308649 magnetization 

  free energy =  -0.576299793840E+03  energy without entropy=  -0.576294110946E+03


--------------------------------------------------------------------------------------------------------




--------------------------------------- Iteration      6(   2)  ---------------------------------------


    POTLOK:  cpu time      0.0615: real time      0.0624
    SETDIJ:  cpu time      0.0062: real time      0.0062
    EDDIAG:  cpu time      5.5717: real time      5.6094
  RMM-DIIS:  cpu time     10.3685: real time     10.4675
    ORTHCH:  cpu time      1.4812: real time      1.4930
       DOS:  cpu time      0.0034: real time      0.0034
    CHARGE:  cpu time      0.4539: real time      0.4562
    MIXING:  cpu time      0.0021: real time      0.0021
    --------------------------------------------
      LOOP:  cpu time     17.9485: real time     18.1002

 eigenvalue-minimisations  :  6757
 total energy-change (2. order) :-0.6176039E-02  (-0.5753336E-02)
 number of electron    1031.0001713 magnetization 
 augmentation part      248.2295915 magnetization 

 eigenvalues of (default mixing * dielectric matrix)
  average eigenvalue GAMMA=   0.3390
  0.3390

  free energy =  -0.576305969879E+03  energy without entropy=  -0.576300348858E+03


--------------------------------------------------------------------------------------------------------




--------------------------------------- Iteration      6(   3)  ---------------------------------------


    POTLOK:  cpu time      0.0645: real time      0.0654
    SETDIJ:  cpu time      0.0060: real time      0.0061
    EDDIAG:  cpu time      5.5524: real time      5.5854
  RMM-DIIS:  cpu time      9.4764: real time      9.5538
    ORTHCH:  cpu time      1.5176: real time      1.5280
       DOS:  cpu time      0.0040: real time      0.0040
    CHARGE:  cpu time      0.4698: real time      0.4723
    MIXING:  cpu time      0.0022: real time      0.0022
    --------------------------------------------
      LOOP:  cpu time     17.0930: real time     17.2172

 eigenvalue-minimisations  :  6156
 total energy-change (2. order) :-0.2683562E-03  (-0.9543605E-03)
 number of electron    1031.0001713 magnetization 
 augmentation part      248.2294123 magnetization 

 eigenvalues of (default mixing * dielectric matrix)
  average eigenvalue GAMMA=   0.3777
  0.6554  0.1000

  free energy =  -0.576306238236E+03  energy without entropy=  -0.576300643040E+03


--------------------------------------------------------------------------------------------------------




--------------------------------------- Iteration      6(   4)  ---------------------------------------


    POTLOK:  cpu time      0.0621: real time      0.0629
    SETDIJ:  cpu time      0.0061: real time      0.0061
    EDDIAG:  cpu time      5.5691: real time      5.6079
  RMM-DIIS:  cpu time     11.5712: real time     11.6793
    ORTHCH:  cpu time      1.5074: real time      1.5204
       DOS:  cpu time      0.0037: real time      0.0037
    CHARGE:  cpu time      0.4792: real time      0.4819
    MIXING:  cpu time      0.0020: real time      0.0020
    --------------------------------------------
      LOOP:  cpu time     19.2009: real time     19.3643

 eigenvalue-minimisations  :  7450
 total energy-change (2. order) : 0.4043500E-04  (-0.2071482E-03)
 number of electron    1031.0001712 magnetization 
 augmentation part      248.2295439 magnetization 

 eigenvalues of (default mixing * dielectric matrix)
  average eigenvalue GAMMA=   0.3853
  0.7072  0.0974  0.3513

  free energy =  -0.576306197801E+03  energy without entropy=  -0.576300494786E+03


--------------------------------------------------------------------------------------------------------




--------------------------------------- Iteration      6(   5)  ---------------------------------------


    POTLOK:  cpu time      0.0635: real time      0.0643
    SETDIJ:  cpu time      0.0067: real time      0.0067
    EDDIAG:  cpu time      5.6348: real time      5.6663
  RMM-DIIS:  cpu time      9.2688: real time      9.3465
    ORTHCH:  cpu time      1.5276: real time      1.5375
       DOS:  cpu time      0.0049: real time      0.0049
    CHARGE:  cpu time      0.4795: real time      0.4820
    MIXING:  cpu time      0.0024: real time      0.0024
    --------------------------------------------
      LOOP:  cpu time     16.9880: real time     17.1106

 eigenvalue-minimisations  :  5973
 total energy-change (2. order) : 0.1681208E-03  (-0.2550215E-04)
 number of electron    1031.0001712 magnetization 
 augmentation part      248.2311329 magnetization 

 eigenvalues of (default mixing * dielectric matrix)
  average eigenvalue GAMMA=   0.5775
  1.0126  1.0126  0.0973  0.1876

  free energy =  -0.576306029680E+03  energy without entropy=  -0.576300402575E+03


--------------------------------------------------------------------------------------------------------




--------------------------------------- Iteration      6(   6)  ---------------------------------------


    POTLOK:  cpu time      0.0627: real time      0.0636
    SETDIJ:  cpu time      0.0064: real time      0.0064
    EDDIAG:  cpu time      5.6183: real time      5.6499
  RMM-DIIS:  cpu time      9.2812: real time      9.3583
    ORTHCH:  cpu time      1.5372: real time      1.5485
       DOS:  cpu time      0.0057: real time      0.0058
    CHARGE:  cpu time      0.4702: real time      0.4732
    MIXING:  cpu time      0.0025: real time      0.0025
    --------------------------------------------
      LOOP:  cpu time     16.9842: real time     17.1082

 eigenvalue-minimisations  :  5983
 total energy-change (2. order) :-0.2446555E-05  (-0.1518974E-04)
 number of electron    1031.0001713 magnetization 
 augmentation part      248.2315201 magnetization 

 eigenvalues of (default mixing * dielectric matrix)
  average eigenvalue GAMMA=   0.6213
  1.2584  1.2584  0.0973  0.2018  0.2905

  free energy =  -0.576306032126E+03  energy without entropy=  -0.576300372753E+03


--------------------------------------------------------------------------------------------------------




--------------------------------------- Iteration      6(   7)  ---------------------------------------


    POTLOK:  cpu time      0.0757: real time      0.0766
    SETDIJ:  cpu time      0.0062: real time      0.0062
    EDDIAG:  cpu time      5.5846: real time      5.6207
  RMM-DIIS:  cpu time      8.5682: real time      8.6410
    ORTHCH:  cpu time      1.4872: real time      1.4967
       DOS:  cpu time      0.0034: real time      0.0034
    CHARGE:  cpu time      0.4557: real time      0.4580
    MIXING:  cpu time      0.0028: real time      0.0028
    --------------------------------------------
      LOOP:  cpu time     16.1837: real time     16.3055

 eigenvalue-minimisations  :  5429
 total energy-change (2. order) : 0.2053095E-04  (-0.1170999E-04)
 number of electron    1031.0001712 magnetization 
 augmentation part      248.2316860 magnetization 

 eigenvalues of (default mixing * dielectric matrix)
  average eigenvalue GAMMA=   0.6503
  1.2696  1.2696  0.8248  0.0973  0.1962  0.2444

  free energy =  -0.576306011595E+03  energy without entropy=  -0.576300343963E+03


--------------------------------------------------------------------------------------------------------




--------------------------------------- Iteration      6(   8)  ---------------------------------------


    POTLOK:  cpu time      0.0614: real time      0.0622
    SETDIJ:  cpu time      0.0059: real time      0.0059
    EDDIAG:  cpu time      5.4143: real time      5.4448
  RMM-DIIS:  cpu time      6.2787: real time      6.3317
    ORTHCH:  cpu time      1.4816: real time      1.4918
       DOS:  cpu time      0.0034: real time      0.0034
    --------------------------------------------
      LOOP:  cpu time     13.2453: real time     13.3398

 eigenvalue-minimisations  :  3972
 total energy-change (2. order) :-0.1814507E-05  (-0.2416329E-05)
 number of electron    1031.0001712 magnetization 
 augmentation part      248.2316860 magnetization 

  free energy =  -0.576306013410E+03  energy without entropy=  -0.576300348623E+03


--------------------------------------------------------------------------------------------------------




------------------------ aborting loop because EDIFF is reached ----------------------------------------





 total charge

# of ion       s       p       d       tot
------------------------------------------
    1        2.212   6.044   5.303  13.559
    2        2.211   6.044   5.303  13.558
    3        2.211   6.044   5.304  13.559
    4        2.211   6.044   5.302  13.557
    5        2.212   6.044   5.303  13.558
    6        2.211   6.044   5.303  13.557
    7        2.211   6.044   5.302  13.557
    8        2.211   6.044   5.304  13.559
    9        2.212   6.044   5.304  13.560
   10        2.211   6.044   5.305  13.559
   11        2.211   6.044   5.304  13.559
   12        2.211   6.044   5.303  13.558
   13        2.211   6.044   5.303  13.558
   14        2.211   6.044   5.305  13.560
   15        2.212   6.044   5.302  13.558
   16        2.212   6.044   5.303  13.559
   17        2.219   6.103   5.276  13.597
   18        2.219   6.103   5.275  13.597
   19        2.218   6.103   5.274  13.595
   20        2.218   6.102   5.270  13.590
   21        2.218   6.102   5.275  13.595
   22        2.218   6.102   5.275  13.595
   23        2.218   6.103   5.274  13.595
   24        2.218   6.103   5.275  13.595
   25        2.219   6.103   5.274  13.595
   26        2.219   6.102   5.274  13.595
   27        2.218   6.102   5.274  13.595
   28        2.219   6.102   5.275  13.596
   29        2.219   6.102   5.274  13.595
   30        2.219   6.103   5.274  13.595
   31        2.218   6.103   5.274  13.595
   32        2.219   6.102   5.275  13.596
   33        2.222   6.111   5.284  13.617
   34        2.224   6.113   5.283  13.619
   35        2.223   6.111   5.283  13.617
   36        2.221   6.108   5.281  13.609
   37        2.222   6.111   5.284  13.617
   38        2.222   6.110   5.284  13.616
   39        2.221   6.108   5.281  13.609
   40        2.223   6.111   5.283  13.617
   41        2.223   6.110   5.283  13.616
   42        2.222   6.108   5.289  13.618
   43        2.223   6.111   5.283  13.616
   44        2.223   6.111   5.283  13.617
   45        2.219   6.107   5.271  13.598
   46        2.222   6.108   5.289  13.618
   47        2.223   6.111   5.282  13.616
   48        2.223   6.111   5.282  13.616
   49        2.218   6.053   5.316  13.587
   50        2.218   6.053   5.316  13.587
   51        2.217   6.049   5.319  13.584
   52        2.216   6.050   5.343  13.609
   53        2.219   6.054   5.314  13.587
   54        2.219   6.054   5.314  13.587
   55        2.217   6.049   5.319  13.584
   56        2.217   6.050   5.317  13.584
   57        2.216   6.049   5.317  13.582
   58        2.205   6.075   5.285  13.565
   59        2.217   6.050   5.317  13.584
   60        2.217   6.050   5.318  13.585
   61        2.205   6.075   5.285  13.565
   62        2.216   6.049   5.316  13.582
   63        2.216   6.048   5.344  13.608
   64        2.217   6.050   5.318  13.584
   65        1.216   2.631   0.000   3.847
   66        0.633   0.082   0.000   0.715
   67        0.636   0.083   0.000   0.718
--------------------------------------------------
tot        144.365 391.751 338.825 874.942
 
    CHARGE:  cpu time      0.4732: real time      0.4759
    FORLOC:  cpu time      0.0179: real time      0.0180
    FORNL :  cpu time      2.6827: real time      2.7010
    STRESS:  cpu time      7.9578: real time      8.0117
    FORCOR:  cpu time      0.0672: real time      0.0677
    FORHAR:  cpu time      0.0278: real time      0.0279
    MIXING:  cpu time      0.0025: real time      0.0025
    OFIELD:  cpu time      0.0000: real time      0.0000

  FORCE on cell =-STRESS in cart. coord.  units (eV):
  Direction    XX          YY          ZZ          XY          YZ          ZX
  --------------------------------------------------------------------------------------
  Alpha Z  3956.67891  3956.67891  3956.67891
  Ewald  324618.94439324570.57665************     0.20310     4.88273     0.03976
  Hartree368298.60196368250.48873************     0.07848     2.96754     0.03046
  E(xc)   -5604.45932 -5604.20630 -5615.89436     0.00027    -0.00795    -0.00010
  Local  ************************739837.01315    -0.26172    -6.92268    -0.07317
  n-local  2353.20498  2353.91942  2311.15058     0.00077    -0.04976     0.00409
  augment  5363.47847  5363.36139  5349.00862    -0.00038    -0.25221    -0.00138
  Kinetic 20413.82243 20401.54487 20414.54117    -0.01915    -0.69914     0.01253
  Fock        0.00000     0.00000     0.00000     0.00000     0.00000     0.00000
  -------------------------------------------------------------------------------------
  Total     -63.89280   -62.30148   -22.33114     0.00137    -0.08146     0.01217
  in kB     -56.96923   -55.55035   -19.91129     0.00122    -0.07264     0.01086
  external pressure =      -44.14 kB  Pullay stress =        0.00 kB



--------------------------------------------------------------------------------------------------------



  FREE ENERGIE OF THE ION-ELECTRON SYSTEM (eV)
  ---------------------------------------------------
  free  energy   TOTEN  =      -576.30601341 eV

  energy  without entropy=     -576.30034862  energy(sigma->0) =     -576.30318102
 
 d Force = 0.2202321E-02[ 0.185E-02, 0.255E-02]  d Energy = 0.2149877E-02 0.524E-04
 d Force = 0.1683315E+03[ 0.168E+03, 0.168E+03]  d Ewald  = 0.1683315E+03-0.603E-06


--------------------------------------------------------------------------------------------------------


    POTLOK:  cpu time      0.0619: real time      0.0624


--------------------------------------------------------------------------------------------------------


 Conjugate gradient step on ions:
 trial-energy change:   -0.002150  1 .order   -0.002202   -0.002555   -0.001850
  (g-gl).g = 0.113E-02      g.g   = 0.119E-02  gl.gl    = 0.297E-02
 g(Force)  = 0.119E-02   g(Stress)= 0.000E+00 ortho     = 0.605E-04
 gamma     =   0.37953
 trial     =   2.11159
 opt step  =   7.65330  (harmonic =   7.65330) maximal distance =0.00646975
 next E    =  -576.308493   (d E  =  -0.00463)


--------------------------------------------------------------------------------------------------------


    WAVPRE:  cpu time      0.0287: real time      0.0486
    FEWALD:  cpu time      0.0014: real time      0.0014

 real space projection operators:
  total allocation   :      15916.72 KBytes
  max/ min on nodes  :       1283.40        670.13

    ORTHCH:  cpu time      2.3303: real time      2.3440
     LOOP+:  cpu time    179.7531: real time    181.1917


--------------------------------------- Ionic step        7  -------------------------------------------




--------------------------------------- Iteration      7(   1)  ---------------------------------------


    POTLOK:  cpu time      0.0603: real time      0.0616
    SETDIJ:  cpu time      0.0063: real time      0.0063
     EDDAV:  cpu time     47.3778: real time     47.7849
       DOS:  cpu time      0.0128: real time      0.0128
    CHARGE:  cpu time      0.4653: real time      0.4676
    MIXING:  cpu time      0.0018: real time      0.0018
    --------------------------------------------
      LOOP:  cpu time     47.9243: real time     48.3352

 eigenvalue-minimisations  :  6452
 total energy-change (2. order) : 0.4080639E-01  (-0.3531020E+00)
 number of electron    1031.0001691 magnetization 
 augmentation part      248.2298033 magnetization 

  free energy =  -0.576265205206E+03  energy without entropy=  -0.576259557546E+03


--------------------------------------------------------------------------------------------------------




--------------------------------------- Iteration      7(   2)  ---------------------------------------


    POTLOK:  cpu time      0.0631: real time      0.0640
    SETDIJ:  cpu time      0.0068: real time      0.0068
    EDDIAG:  cpu time      5.5604: real time      5.5919
  RMM-DIIS:  cpu time     10.5438: real time     10.6353
    ORTHCH:  cpu time      1.4967: real time      1.5066
       DOS:  cpu time      0.0133: real time      0.0133
    CHARGE:  cpu time      0.4557: real time      0.4581
    MIXING:  cpu time      0.0020: real time      0.0021
    --------------------------------------------
      LOOP:  cpu time     18.1416: real time     18.2778

 eigenvalue-minimisations  :  6812
 total energy-change (2. order) :-0.4213446E-01  (-0.3963143E-01)
 number of electron    1031.0001691 magnetization 
 augmentation part      248.2253521 magnetization 

 eigenvalues of (default mixing * dielectric matrix)
  average eigenvalue GAMMA=   0.3489
  0.3489

  free energy =  -0.576307339663E+03  energy without entropy=  -0.576301867749E+03


--------------------------------------------------------------------------------------------------------




--------------------------------------- Iteration      7(   3)  ---------------------------------------


    POTLOK:  cpu time      0.0602: real time      0.0635
    SETDIJ:  cpu time      0.0060: real time      0.0060
    EDDIAG:  cpu time      5.4882: real time      5.5208
  RMM-DIIS:  cpu time      9.6202: real time      9.7014
    ORTHCH:  cpu time      1.4849: real time      1.4951
       DOS:  cpu time      0.0035: real time      0.0035
    CHARGE:  cpu time      0.4693: real time      0.4716
    MIXING:  cpu time      0.0023: real time      0.0023
    --------------------------------------------
      LOOP:  cpu time     17.1344: real time     17.2642

 eigenvalue-minimisations  :  6242
 total energy-change (2. order) :-0.2635975E-02  (-0.6643373E-02)
 number of electron    1031.0001691 magnetization 
 augmentation part      248.2250018 magnetization 

 eigenvalues of (default mixing * dielectric matrix)
  average eigenvalue GAMMA=   0.3760
  0.6522  0.0999

  free energy =  -0.576309975638E+03  energy without entropy=  -0.576304540841E+03


--------------------------------------------------------------------------------------------------------




--------------------------------------- Iteration      7(   4)  ---------------------------------------


    POTLOK:  cpu time      0.0722: real time      0.0732
    SETDIJ:  cpu time      0.0060: real time      0.0060
    EDDIAG:  cpu time      5.5489: real time      5.5836
  RMM-DIIS:  cpu time     11.8266: real time     11.9262
    ORTHCH:  cpu time      1.4844: real time      1.4943
       DOS:  cpu time      0.0046: real time      0.0046
    CHARGE:  cpu time      0.4706: real time      0.4729
    MIXING:  cpu time      0.0023: real time      0.0023
    --------------------------------------------
      LOOP:  cpu time     19.4155: real time     19.5630

 eigenvalue-minimisations  :  7631
 total energy-change (2. order) : 0.4917507E-03  (-0.1454695E-02)
 number of electron    1031.0001691 magnetization 
 augmentation part      248.2250003 magnetization 

 eigenvalues of (default mixing * dielectric matrix)
  average eigenvalue GAMMA=   0.3820
  0.7115  0.3375  0.0969

  free energy =  -0.576309483887E+03  energy without entropy=  -0.576303773548E+03


--------------------------------------------------------------------------------------------------------




--------------------------------------- Iteration      7(   5)  ---------------------------------------


    POTLOK:  cpu time      0.0616: real time      0.0633
    SETDIJ:  cpu time      0.0058: real time      0.0059
    EDDIAG:  cpu time      5.5832: real time      5.6184
  RMM-DIIS:  cpu time      9.8816: real time      9.9658
    ORTHCH:  cpu time      1.4941: real time      1.5041
       DOS:  cpu time      0.0051: real time      0.0051
    CHARGE:  cpu time      0.4796: real time      0.4821
    MIXING:  cpu time      0.0024: real time      0.0024
    --------------------------------------------
      LOOP:  cpu time     17.5134: real time     17.6471

 eigenvalue-minimisations  :  6391
 total energy-change (2. order) : 0.1240234E-02  (-0.1811485E-03)
 number of electron    1031.0001691 magnetization 
 augmentation part      248.2295367 magnetization 

 eigenvalues of (default mixing * dielectric matrix)
  average eigenvalue GAMMA=   0.5670
  0.9920  0.9920  0.0968  0.1873

  free energy =  -0.576308243654E+03  energy without entropy=  -0.576302737637E+03


--------------------------------------------------------------------------------------------------------




--------------------------------------- Iteration      7(   6)  ---------------------------------------


    POTLOK:  cpu time      0.0607: real time      0.0647
    SETDIJ:  cpu time      0.0061: real time      0.0062
    EDDIAG:  cpu time      5.6175: real time      5.6503
  RMM-DIIS:  cpu time      9.7947: real time      9.8768
    ORTHCH:  cpu time      1.5290: real time      1.5391
       DOS:  cpu time      0.0043: real time      0.0043
    CHARGE:  cpu time      0.4727: real time      0.4752
    MIXING:  cpu time      0.0025: real time      0.0026
    --------------------------------------------
      LOOP:  cpu time     17.4875: real time     17.6191

 eigenvalue-minimisations  :  6381
 total energy-change (2. order) :-0.1955079E-05  (-0.1025654E-03)
 number of electron    1031.0001691 magnetization 
 augmentation part      248.2305644 magnetization 

 eigenvalues of (default mixing * dielectric matrix)
  average eigenvalue GAMMA=   0.6215
  1.2581  1.2581  0.0968  0.2017  0.2930

  free energy =  -0.576308245609E+03  energy without entropy=  -0.576302664967E+03


--------------------------------------------------------------------------------------------------------




--------------------------------------- Iteration      7(   7)  ---------------------------------------


    POTLOK:  cpu time      0.0744: real time      0.0758
    SETDIJ:  cpu time      0.0063: real time      0.0063
    EDDIAG:  cpu time      5.6232: real time      5.6565
  RMM-DIIS:  cpu time      9.6118: real time      9.6928
    ORTHCH:  cpu time      1.4811: real time      1.4911
       DOS:  cpu time      0.0193: real time      0.0194
    CHARGE:  cpu time      0.4642: real time      0.4664
    MIXING:  cpu time      0.0025: real time      0.0025
    --------------------------------------------
      LOOP:  cpu time     17.2828: real time     17.4107

 eigenvalue-minimisations  :  6194
 total energy-change (2. order) : 0.1289795E-03  (-0.8523194E-04)
 number of electron    1031.0001691 magnetization 
 augmentation part      248.2313635 magnetization 

 eigenvalues of (default mixing * dielectric matrix)
  average eigenvalue GAMMA=   0.6550
  1.2732  1.2732  0.8442  0.0968  0.1963  0.2463

  free energy =  -0.576308116629E+03  energy without entropy=  -0.576302506890E+03


--------------------------------------------------------------------------------------------------------




--------------------------------------- Iteration      7(   8)  ---------------------------------------


    POTLOK:  cpu time      0.0612: real time      0.0638
    SETDIJ:  cpu time      0.0289: real time      0.0290
    EDDIAG:  cpu time      5.3980: real time      5.4281
  RMM-DIIS:  cpu time     10.1039: real time     10.1891
    ORTHCH:  cpu time      1.4932: real time      1.5027
       DOS:  cpu time      0.0090: real time      0.0091
    CHARGE:  cpu time      0.4522: real time      0.4543
    MIXING:  cpu time      0.0024: real time      0.0024
    --------------------------------------------
      LOOP:  cpu time     17.5490: real time     17.6786

 eigenvalue-minimisations  :  6559
 total energy-change (2. order) :-0.2178276E-05  (-0.1485282E-04)
 number of electron    1031.0001691 magnetization 
 augmentation part      248.2299814 magnetization 

 eigenvalues of (default mixing * dielectric matrix)
  average eigenvalue GAMMA=   0.6162
  1.2810  1.2810  0.8942  0.0968  0.1900  0.2852  0.2852

  free energy =  -0.576308118808E+03  energy without entropy=  -0.576302524932E+03


--------------------------------------------------------------------------------------------------------




--------------------------------------- Iteration      7(   9)  ---------------------------------------


    POTLOK:  cpu time      0.0607: real time      0.0622
    SETDIJ:  cpu time      0.0060: real time      0.0061
    EDDIAG:  cpu time      5.4091: real time      5.4401
  RMM-DIIS:  cpu time      8.4961: real time      8.5658
    ORTHCH:  cpu time      1.5108: real time      1.5203
       DOS:  cpu time      0.0041: real time      0.0042
    CHARGE:  cpu time      0.4752: real time      0.4774
    MIXING:  cpu time      0.0027: real time      0.0027
    --------------------------------------------
      LOOP:  cpu time     15.9646: real time     16.0786

 eigenvalue-minimisations  :  5432
 total energy-change (2. order) : 0.3181904E-04  (-0.5966008E-05)
 number of electron    1031.0001691 magnetization 
 augmentation part      248.2293302 magnetization 

 eigenvalues of (default mixing * dielectric matrix)
  average eigenvalue GAMMA=   0.6922
  1.1654  1.1654  1.2281  1.2281  0.0968  0.2621  0.1958  0.1958

  free energy =  -0.576308086988E+03  energy without entropy=  -0.576302480637E+03


--------------------------------------------------------------------------------------------------------




--------------------------------------- Iteration      7(  10)  ---------------------------------------


    POTLOK:  cpu time      0.0626: real time      0.0634
    SETDIJ:  cpu time      0.0059: real time      0.0059
    EDDIAG:  cpu time      5.3705: real time      5.4020
  RMM-DIIS:  cpu time      8.8455: real time      8.9196
    ORTHCH:  cpu time      1.5208: real time      1.5325
       DOS:  cpu time      0.0039: real time      0.0040
    CHARGE:  cpu time      0.4679: real time      0.4701
    MIXING:  cpu time      0.0028: real time      0.0028
    --------------------------------------------
      LOOP:  cpu time     16.2799: real time     16.4002

 eigenvalue-minimisations  :  5559
 total energy-change (2. order) :-0.1476510E-04  (-0.5258356E-05)
 number of electron    1031.0001691 magnetization 
 augmentation part      248.2296792 magnetization 

 eigenvalues of (default mixing * dielectric matrix)
  average eigenvalue GAMMA=   0.7048
  1.9869  1.1463  1.1463  1.0576  0.0968  0.2832  0.2443  0.1938  0.1878

  free energy =  -0.576308101754E+03  energy without entropy=  -0.576302492596E+03


--------------------------------------------------------------------------------------------------------




--------------------------------------- Iteration      7(  11)  ---------------------------------------


    POTLOK:  cpu time      0.0645: real time      0.0656
    SETDIJ:  cpu time      0.0061: real time      0.0061
    EDDIAG:  cpu time      5.4853: real time      5.5162
  RMM-DIIS:  cpu time      6.6723: real time      6.7265
    ORTHCH:  cpu time      1.5345: real time      1.5462
       DOS:  cpu time      0.0036: real time      0.0036
    CHARGE:  cpu time      0.4919: real time      0.4943
    MIXING:  cpu time      0.0028: real time      0.0028
    --------------------------------------------
      LOOP:  cpu time     14.2609: real time     14.3614

 eigenvalue-minimisations  :  4148
 total energy-change (2. order) : 0.2013668E-04  (-0.2683600E-05)
 number of electron    1031.0001691 magnetization 
 augmentation part      248.2298454 magnetization 

 eigenvalues of (default mixing * dielectric matrix)
  average eigenvalue GAMMA=   0.7002
  2.2678  1.1261  1.1261  1.0273  0.4812  0.0968  0.2625  0.2349  0.1945  0.1845

  free energy =  -0.576308081617E+03  energy without entropy=  -0.576302489103E+03


--------------------------------------------------------------------------------------------------------




--------------------------------------- Iteration      7(  12)  ---------------------------------------


    POTLOK:  cpu time      0.0633: real time      0.0640
    SETDIJ:  cpu time      0.0062: real time      0.0063
    EDDIAG:  cpu time      5.5158: real time      5.5467
  RMM-DIIS:  cpu time      5.7785: real time      5.8264
    ORTHCH:  cpu time      1.4883: real time      1.4978
       DOS:  cpu time      0.0033: real time      0.0033
    --------------------------------------------
      LOOP:  cpu time     12.8553: real time     12.9444

 eigenvalue-minimisations  :  3590
 total energy-change (2. order) : 0.8676143E-06  (-0.6361181E-06)
 number of electron    1031.0001691 magnetization 
 augmentation part      248.2298454 magnetization 

  free energy =  -0.576308080749E+03  energy without entropy=  -0.576302484605E+03


--------------------------------------------------------------------------------------------------------




------------------------ aborting loop because EDIFF is reached ----------------------------------------





 total charge

# of ion       s       p       d       tot
------------------------------------------
    1        2.212   6.044   5.303  13.558
    2        2.211   6.044   5.304  13.559
    3        2.211   6.044   5.304  13.559
    4        2.211   6.044   5.303  13.558
    5        2.212   6.044   5.304  13.559
    6        2.211   6.044   5.303  13.558
    7        2.211   6.044   5.303  13.558
    8        2.211   6.044   5.304  13.559
    9        2.212   6.044   5.303  13.559
   10        2.211   6.044   5.305  13.559
   11        2.211   6.044   5.303  13.558
   12        2.211   6.044   5.303  13.558
   13        2.211   6.044   5.302  13.558
   14        2.211   6.044   5.305  13.559
   15        2.212   6.044   5.303  13.558
   16        2.212   6.044   5.302  13.558
   17        2.219   6.102   5.275  13.596
   18        2.219   6.102   5.275  13.596
   19        2.218   6.102   5.273  13.594
   20        2.218   6.102   5.270  13.589
   21        2.218   6.102   5.274  13.594
   22        2.218   6.102   5.274  13.594
   23        2.218   6.102   5.274  13.594
   24        2.218   6.102   5.274  13.595
   25        2.218   6.103   5.273  13.594
   26        2.218   6.102   5.274  13.594
   27        2.218   6.102   5.274  13.593
   28        2.218   6.102   5.274  13.595
   29        2.218   6.102   5.274  13.594
   30        2.218   6.103   5.273  13.594
   31        2.218   6.102   5.273  13.593
   32        2.218   6.102   5.274  13.594
   33        2.222   6.110   5.284  13.616
   34        2.223   6.113   5.283  13.619
   35        2.222   6.110   5.283  13.615
   36        2.221   6.107   5.280  13.608
   37        2.222   6.110   5.284  13.616
   38        2.221   6.110   5.284  13.615
   39        2.221   6.107   5.280  13.608
   40        2.222   6.110   5.283  13.615
   41        2.222   6.110   5.282  13.615
   42        2.222   6.107   5.288  13.617
   43        2.223   6.111   5.283  13.616
   44        2.223   6.111   5.283  13.616
   45        2.219   6.107   5.271  13.596
   46        2.222   6.107   5.288  13.617
   47        2.223   6.111   5.282  13.616
   48        2.223   6.111   5.282  13.616
   49        2.218   6.053   5.316  13.587
   50        2.218   6.053   5.316  13.587
   51        2.217   6.049   5.319  13.584
   52        2.216   6.050   5.342  13.609
   53        2.219   6.054   5.314  13.587
   54        2.219   6.054   5.315  13.587
   55        2.217   6.049   5.319  13.584
   56        2.217   6.050   5.316  13.583
   57        2.216   6.049   5.315  13.581
   58        2.205   6.075   5.284  13.564
   59        2.217   6.050   5.317  13.583
   60        2.217   6.050   5.317  13.584
   61        2.204   6.075   5.284  13.564
   62        2.216   6.049   5.315  13.581
   63        2.216   6.048   5.344  13.608
   64        2.217   6.050   5.317  13.584
   65        1.216   2.629   0.000   3.845
   66        0.626   0.079   0.000   0.705
   67        0.640   0.085   0.000   0.724
--------------------------------------------------
tot        144.356 391.737 338.804 874.897
 
    CHARGE:  cpu time      0.4982: real time      0.5008
    FORLOC:  cpu time      0.0178: real time      0.0179
    FORNL :  cpu time      2.7406: real time      2.7581
    STRESS:  cpu time      8.1910: real time      8.2384
    FORCOR:  cpu time      0.0673: real time      0.0677
    FORHAR:  cpu time      0.0275: real time      0.0277
    MIXING:  cpu time      0.0029: real time      0.0030
    OFIELD:  cpu time      0.0001: real time      0.0001

  FORCE on cell =-STRESS in cart. coord.  units (eV):
  Direction    XX          YY          ZZ          XY          YZ          ZX
  --------------------------------------------------------------------------------------
  Alpha Z  3956.67891  3956.67891  3956.67891
  Ewald  324173.31226324123.91231************     0.18300     3.91524     0.04799
  Hartree367856.37134367807.70764************     0.08290     2.66347     0.02393
  E(xc)   -5604.29481 -5604.04269 -5615.76798     0.00023    -0.00900    -0.00005
  Local  ************************738942.44025    -0.26362    -5.83497    -0.08721
  n-local  2352.78654  2353.51742  2310.21628     0.00216    -0.02431     0.00208
  augment  5363.45691  5363.31136  5349.13802     0.00226    -0.26738     0.00106
  Kinetic 20413.26327 20400.98788 20413.64983    -0.00566    -0.77898     0.02023
  Fock        0.00000     0.00000     0.00000     0.00000     0.00000     0.00000
  -------------------------------------------------------------------------------------
  Total     -64.33621   -62.77219   -23.98188     0.00128    -0.33594     0.00804
  in kB     -57.36459   -55.97005   -21.38315     0.00114    -0.29954     0.00717
  external pressure =      -44.91 kB  Pullay stress =        0.00 kB



--------------------------------------------------------------------------------------------------------



  FREE ENERGIE OF THE ION-ELECTRON SYSTEM (eV)
  ---------------------------------------------------
  free  energy   TOTEN  =      -576.30808075 eV

  energy  without entropy=     -576.30248461  energy(sigma->0) =     -576.30528268
 
 d Force = 0.2292490E-02[-0.270E-03, 0.485E-02]  d Energy = 0.2067339E-02 0.225E-03
 d Force = 0.4415173E+03[ 0.441E+03, 0.442E+03]  d Ewald  = 0.4415173E+03-0.201E-06


--------------------------------------------------------------------------------------------------------


    POTLOK:  cpu time      0.0628: real time      0.0633


--------------------------------------------------------------------------------------------------------




--------------------------------------------------------------------------------------------------------


    WAVPRE:  cpu time      0.0274: real time      0.0296
    FEWALD:  cpu time      0.0014: real time      0.0014

 real space projection operators:
  total allocation   :      15924.67 KBytes
  max/ min on nodes  :       1283.82        670.98

    ORTHCH:  cpu time      2.3581: real time      2.3731
     LOOP+:  cpu time    245.8258: real time    247.6852


--------------------------------------- Ionic step        8  -------------------------------------------




--------------------------------------- Iteration      8(   1)  ---------------------------------------


    POTLOK:  cpu time      0.0565: real time      0.0578
    SETDIJ:  cpu time      0.0068: real time      0.0069
     EDDAV:  cpu time     48.0837: real time     48.6415
       DOS:  cpu time      0.0178: real time      0.0178
    CHARGE:  cpu time      0.4582: real time      0.4605
    MIXING:  cpu time      0.0021: real time      0.0021
    --------------------------------------------
      LOOP:  cpu time     48.6251: real time     49.1867

 eigenvalue-minimisations  :  6512
 total energy-change (2. order) : 0.4669087E-03  (-0.1110151E-01)
 number of electron    1031.0001688 magnetization 
 augmentation part      248.2297206 magnetization 

  free energy =  -0.576307614708E+03  energy without entropy=  -0.576302021642E+03


--------------------------------------------------------------------------------------------------------




--------------------------------------- Iteration      8(   2)  ---------------------------------------


    POTLOK:  cpu time      0.0797: real time      0.0804
    SETDIJ:  cpu time      0.0064: real time      0.0065
    EDDIAG:  cpu time      5.4497: real time      5.4802
  RMM-DIIS:  cpu time     10.4241: real time     10.5115
    ORTHCH:  cpu time      1.4848: real time      1.4949
       DOS:  cpu time      0.0056: real time      0.0057
    CHARGE:  cpu time      0.4552: real time      0.4575
    MIXING:  cpu time      0.0021: real time      0.0021
    --------------------------------------------
      LOOP:  cpu time     17.9075: real time     18.0388

 eigenvalue-minimisations  :  6730
 total energy-change (2. order) :-0.1320332E-02  (-0.1244013E-02)
 number of electron    1031.0001688 magnetization 
 augmentation part      248.2291410 magnetization 

 eigenvalues of (default mixing * dielectric matrix)
  average eigenvalue GAMMA=   0.3506
  0.3506

  free energy =  -0.576308935040E+03  energy without entropy=  -0.576303374472E+03


--------------------------------------------------------------------------------------------------------




--------------------------------------- Iteration      8(   3)  ---------------------------------------


    POTLOK:  cpu time      0.0628: real time      0.0636
    SETDIJ:  cpu time      0.0060: real time      0.0061
    EDDIAG:  cpu time      5.4453: real time      5.4766
  RMM-DIIS:  cpu time      9.2577: real time      9.3375
    ORTHCH:  cpu time      1.5364: real time      1.5475
       DOS:  cpu time      0.0075: real time      0.0075
    CHARGE:  cpu time      0.5057: real time      0.5085
    MIXING:  cpu time      0.0023: real time      0.0022
    --------------------------------------------
      LOOP:  cpu time     16.8236: real time     16.9496

 eigenvalue-minimisations  :  5933
 total energy-change (2. order) :-0.7771651E-04  (-0.2058698E-03)
 number of electron    1031.0001688 magnetization 
 augmentation part      248.2289819 magnetization 

 eigenvalues of (default mixing * dielectric matrix)
  average eigenvalue GAMMA=   0.3798
  0.6582  0.1013

  free energy =  -0.576309012757E+03  energy without entropy=  -0.576303458243E+03


--------------------------------------------------------------------------------------------------------




--------------------------------------- Iteration      8(   4)  ---------------------------------------


    POTLOK:  cpu time      0.0629: real time      0.0636
    SETDIJ:  cpu time      0.0066: real time      0.0066
    EDDIAG:  cpu time      5.5336: real time      5.5664
  RMM-DIIS:  cpu time     11.0724: real time     11.1616
    ORTHCH:  cpu time      1.4817: real time      1.4930
       DOS:  cpu time      0.0035: real time      0.0036
    CHARGE:  cpu time      0.4609: real time      0.4632
    MIXING:  cpu time      0.0027: real time      0.0028
    --------------------------------------------
      LOOP:  cpu time     18.6242: real time     18.7606

 eigenvalue-minimisations  :  7171
 total energy-change (2. order) : 0.1249398E-04  (-0.4451272E-04)
 number of electron    1031.0001688 magnetization 
 augmentation part      248.2291093 magnetization 

 eigenvalues of (default mixing * dielectric matrix)
  average eigenvalue GAMMA=   0.3824
  0.7268  0.3231  0.0972

  free energy =  -0.576309000263E+03  energy without entropy=  -0.576303394150E+03


--------------------------------------------------------------------------------------------------------




--------------------------------------- Iteration      8(   5)  ---------------------------------------


    POTLOK:  cpu time      0.0618: real time      0.0626
    SETDIJ:  cpu time      0.0059: real time      0.0059
    EDDIAG:  cpu time      5.4024: real time      5.4355
  RMM-DIIS:  cpu time      8.1477: real time      8.2142
    ORTHCH:  cpu time      1.4854: real time      1.4954
       DOS:  cpu time      0.0032: real time      0.0032
    CHARGE:  cpu time      0.4663: real time      0.4687
    MIXING:  cpu time      0.0023: real time      0.0023
    --------------------------------------------
      LOOP:  cpu time     15.5749: real time     15.6878

 eigenvalue-minimisations  :  5168
 total energy-change (2. order) : 0.4043448E-04  (-0.5910533E-05)
 number of electron    1031.0001688 magnetization 
 augmentation part      248.2298079 magnetization 

 eigenvalues of (default mixing * dielectric matrix)
  average eigenvalue GAMMA=   0.5616
  0.9810  0.9810  0.0971  0.1875

  free energy =  -0.576308959828E+03  energy without entropy=  -0.576303392164E+03


--------------------------------------------------------------------------------------------------------




--------------------------------------- Iteration      8(   6)  ---------------------------------------


    POTLOK:  cpu time      0.0620: real time      0.0630
    SETDIJ:  cpu time      0.0059: real time      0.0059
    EDDIAG:  cpu time      5.3643: real time      5.3992
  RMM-DIIS:  cpu time      7.1160: real time      7.1807
    ORTHCH:  cpu time      1.4739: real time      1.4854
       DOS:  cpu time      0.0041: real time      0.0041
    --------------------------------------------
      LOOP:  cpu time     14.0262: real time     14.1383

 eigenvalue-minimisations  :  4500
 total energy-change (2. order) :-0.1531094E-05  (-0.3399736E-05)
 number of electron    1031.0001688 magnetization 
 augmentation part      248.2298079 magnetization 

  free energy =  -0.576308961359E+03  energy without entropy=  -0.576303382193E+03


--------------------------------------------------------------------------------------------------------




------------------------ aborting loop because EDIFF is reached ----------------------------------------





 total charge

# of ion       s       p       d       tot
------------------------------------------
    1        2.212   6.044   5.304  13.559
    2        2.211   6.044   5.304  13.559
    3        2.211   6.044   5.304  13.559
    4        2.211   6.044   5.303  13.558
    5        2.212   6.044   5.303  13.558
    6        2.211   6.044   5.303  13.558
    7        2.211   6.044   5.303  13.558
    8        2.211   6.044   5.304  13.559
    9        2.212   6.044   5.304  13.560
   10        2.211   6.044   5.305  13.559
   11        2.211   6.044   5.303  13.558
   12        2.211   6.044   5.303  13.558
   13        2.211   6.044   5.302  13.558
   14        2.211   6.044   5.305  13.560
   15        2.212   6.044   5.302  13.558
   16        2.212   6.044   5.303  13.559
   17        2.219   6.102   5.274  13.595
   18        2.219   6.102   5.274  13.595
   19        2.218   6.102   5.273  13.593
   20        2.218   6.102   5.269  13.589
   21        2.218   6.102   5.274  13.594
   22        2.218   6.102   5.274  13.594
   23        2.218   6.102   5.273  13.593
   24        2.218   6.102   5.274  13.594
   25        2.218   6.102   5.273  13.593
   26        2.218   6.102   5.273  13.594
   27        2.218   6.102   5.273  13.593
   28        2.218   6.102   5.274  13.594
   29        2.218   6.102   5.273  13.594
   30        2.218   6.102   5.273  13.593
   31        2.218   6.102   5.272  13.593
   32        2.218   6.102   5.274  13.594
   33        2.222   6.110   5.284  13.616
   34        2.223   6.113   5.283  13.619
   35        2.222   6.110   5.283  13.616
   36        2.221   6.107   5.280  13.608
   37        2.222   6.110   5.284  13.616
   38        2.221   6.109   5.284  13.615
   39        2.221   6.107   5.280  13.608
   40        2.222   6.110   5.283  13.616
   41        2.222   6.110   5.283  13.616
   42        2.222   6.107   5.288  13.617
   43        2.223   6.110   5.283  13.616
   44        2.223   6.110   5.283  13.616
   45        2.219   6.107   5.271  13.596
   46        2.222   6.107   5.288  13.617
   47        2.223   6.111   5.283  13.617
   48        2.223   6.111   5.283  13.616
   49        2.218   6.053   5.316  13.587
   50        2.218   6.053   5.316  13.587
   51        2.217   6.049   5.318  13.583
   52        2.216   6.050   5.342  13.609
   53        2.219   6.054   5.314  13.587
   54        2.219   6.054   5.314  13.587
   55        2.217   6.049   5.318  13.583
   56        2.217   6.050   5.317  13.583
   57        2.216   6.049   5.316  13.581
   58        2.205   6.075   5.285  13.565
   59        2.217   6.050   5.316  13.583
   60        2.217   6.050   5.318  13.585
   61        2.204   6.075   5.285  13.565
   62        2.216   6.049   5.315  13.581
   63        2.216   6.048   5.344  13.608
   64        2.217   6.050   5.317  13.584
   65        1.216   2.629   0.000   3.845
   66        0.627   0.080   0.000   0.707
   67        0.639   0.084   0.000   0.723
--------------------------------------------------
tot        144.355 391.736 338.801 874.891
 
    CHARGE:  cpu time      0.4526: real time      0.4549
    FORLOC:  cpu time      0.0307: real time      0.0308
    FORNL :  cpu time      2.6252: real time      2.6420
    STRESS:  cpu time      8.1714: real time      8.2208
    FORCOR:  cpu time      0.0762: real time      0.0767
    FORHAR:  cpu time      0.0277: real time      0.0279
    MIXING:  cpu time      0.0023: real time      0.0024
    OFIELD:  cpu time      0.0000: real time      0.0000

  FORCE on cell =-STRESS in cart. coord.  units (eV):
  Direction    XX          YY          ZZ          XY          YZ          ZX
  --------------------------------------------------------------------------------------
  Alpha Z  3956.67891  3956.67891  3956.67891
  Ewald  324096.09022324046.67199************     0.18109     4.03928     0.04861
  Hartree367778.72094367729.93516************     0.07150     2.66681     0.02815
  E(xc)   -5604.26771 -5604.01551 -5615.74653     0.00023    -0.00893    -0.00003
  Local  ************************738786.48507    -0.23974    -5.91372    -0.08194
  n-local  2352.71187  2353.44212  2310.03812     0.00149    -0.02049     0.00326
  augment  5363.45130  5363.30581  5349.16296     0.00071    -0.27236    -0.00055
  Kinetic 20413.19702 20400.93822 20413.52058    -0.01312    -0.79576     0.01355
  Fock        0.00000     0.00000     0.00000     0.00000     0.00000     0.00000
  -------------------------------------------------------------------------------------
  Total     -64.39019   -62.80821   -24.21493     0.00216    -0.30518     0.01105
  in kB     -57.41272   -56.00217   -21.59095     0.00192    -0.27211     0.00985
  external pressure =      -45.00 kB  Pullay stress =        0.00 kB



--------------------------------------------------------------------------------------------------------



  FREE ENERGIE OF THE ION-ELECTRON SYSTEM (eV)
  ---------------------------------------------------
  free  energy   TOTEN  =      -576.30896136 eV

  energy  without entropy=     -576.30338219  energy(sigma->0) =     -576.30617178
 
 d Force = 0.9232881E-03[ 0.857E-03, 0.990E-03]  d Energy = 0.8806100E-03 0.427E-04
 d Force = 0.7646542E+02[ 0.765E+02, 0.765E+02]  d Ewald  = 0.7646542E+02-0.244E-06


--------------------------------------------------------------------------------------------------------


    POTLOK:  cpu time      0.0626: real time      0.0631


--------------------------------------------------------------------------------------------------------


 Conjugate gradient step on ions:
 trial-energy change:   -0.000881  1 .order   -0.000923   -0.000990   -0.000857
  (g-gl).g = 0.353E-02      g.g   = 0.346E-02  gl.gl    = 0.119E-02
 g(Force)  = 0.346E-02   g(Stress)= 0.000E+00 ortho     =-0.487E-04
 gamma     =   2.97806
 trial     =   0.29877
 opt step  =   1.19510  (harmonic =   2.21774) maximal distance =0.00316245
 next E    =  -576.311755   (d E  =  -0.00367)


--------------------------------------------------------------------------------------------------------


    WAVPRE:  cpu time      0.0274: real time      0.0294
    FEWALD:  cpu time      0.0014: real time      0.0014

 real space projection operators:
  total allocation   :      15936.75 KBytes
  max/ min on nodes  :       1284.66        671.48

    ORTHCH:  cpu time      2.4345: real time      2.4494
     LOOP+:  cpu time    145.5162: real time    146.7856


--------------------------------------- Ionic step        9  -------------------------------------------




--------------------------------------- Iteration      9(   1)  ---------------------------------------


    POTLOK:  cpu time      0.0572: real time      0.0584
    SETDIJ:  cpu time      0.0065: real time      0.0066
     EDDAV:  cpu time     47.5846: real time     48.1417
       DOS:  cpu time      0.0180: real time      0.0181
    CHARGE:  cpu time      0.4699: real time      0.4727
    MIXING:  cpu time      0.0023: real time      0.0023
    --------------------------------------------
      LOOP:  cpu time     48.1386: real time     48.6998

 eigenvalue-minimisations  :  6452
 total energy-change (2. order) : 0.1028210E-01  (-0.9964011E-01)
 number of electron    1031.0001680 magnetization 
 augmentation part      248.2295617 magnetization 

  free energy =  -0.576298677729E+03  energy without entropy=  -0.576293119042E+03


--------------------------------------------------------------------------------------------------------




--------------------------------------- Iteration      9(   2)  ---------------------------------------


    POTLOK:  cpu time      0.0655: real time      0.0662
    SETDIJ:  cpu time      0.0141: real time      0.0154
    EDDIAG:  cpu time      5.4512: real time      5.4862
  RMM-DIIS:  cpu time     10.4814: real time     10.5668
    ORTHCH:  cpu time      1.5492: real time      1.5589
       DOS:  cpu time      0.0036: real time      0.0037
    CHARGE:  cpu time      0.4759: real time      0.4782
    MIXING:  cpu time      0.0022: real time      0.0022
    --------------------------------------------
      LOOP:  cpu time     18.0431: real time     18.1776

 eigenvalue-minimisations  :  6768
 total energy-change (2. order) :-0.1196020E-01  (-0.1117480E-01)
 number of electron    1031.0001680 magnetization 
 augmentation part      248.2274254 magnetization 

 eigenvalues of (default mixing * dielectric matrix)
  average eigenvalue GAMMA=   0.3409
  0.3409

  free energy =  -0.576310637930E+03  energy without entropy=  -0.576305163845E+03


--------------------------------------------------------------------------------------------------------




--------------------------------------- Iteration      9(   3)  ---------------------------------------


    POTLOK:  cpu time      0.0634: real time      0.0643
    SETDIJ:  cpu time      0.0064: real time      0.0065
    EDDIAG:  cpu time      5.5109: real time      5.5414
  RMM-DIIS:  cpu time      9.5045: real time      9.5855
    ORTHCH:  cpu time      1.5355: real time      1.5454
       DOS:  cpu time      0.0089: real time      0.0090
    CHARGE:  cpu time      0.4822: real time      0.4845
    MIXING:  cpu time      0.0022: real time      0.0022
    --------------------------------------------
      LOOP:  cpu time     17.1140: real time     17.2387

 eigenvalue-minimisations  :  6239
 total energy-change (2. order) :-0.5520501E-03  (-0.1844981E-02)
 number of electron    1031.0001680 magnetization 
 augmentation part      248.2270577 magnetization 

 eigenvalues of (default mixing * dielectric matrix)
  average eigenvalue GAMMA=   0.3751
  0.6511  0.0991

  free energy =  -0.576311189980E+03  energy without entropy=  -0.576305742736E+03


--------------------------------------------------------------------------------------------------------




--------------------------------------- Iteration      9(   4)  ---------------------------------------


    POTLOK:  cpu time      0.0757: real time      0.0765
    SETDIJ:  cpu time      0.0062: real time      0.0063
    EDDIAG:  cpu time      5.5551: real time      5.5860
  RMM-DIIS:  cpu time     11.7890: real time     11.8860
    ORTHCH:  cpu time      1.5322: real time      1.5421
       DOS:  cpu time      0.0068: real time      0.0069
    CHARGE:  cpu time      0.4562: real time      0.4585
    MIXING:  cpu time      0.0021: real time      0.0021
    --------------------------------------------
      LOOP:  cpu time     19.4235: real time     19.5645

 eigenvalue-minimisations  :  7562
 total energy-change (2. order) : 0.1277842E-03  (-0.3961496E-03)
 number of electron    1031.0001680 magnetization 
 augmentation part      248.2270486 magnetization 

 eigenvalues of (default mixing * dielectric matrix)
  average eigenvalue GAMMA=   0.3793
  0.7032  0.3377  0.0970

  free energy =  -0.576311062196E+03  energy without entropy=  -0.576305473361E+03


--------------------------------------------------------------------------------------------------------




--------------------------------------- Iteration      9(   5)  ---------------------------------------


    POTLOK:  cpu time      0.0629: real time      0.0637
    SETDIJ:  cpu time      0.0059: real time      0.0059
    EDDIAG:  cpu time      5.3900: real time      5.4206
  RMM-DIIS:  cpu time      9.6722: real time      9.7552
    ORTHCH:  cpu time      1.5350: real time      1.5455
       DOS:  cpu time      0.0046: real time      0.0047
    CHARGE:  cpu time      0.4970: real time      0.4995
    MIXING:  cpu time      0.0024: real time      0.0025
    --------------------------------------------
      LOOP:  cpu time     17.1699: real time     17.2974

 eigenvalue-minimisations  :  6185
 total energy-change (2. order) : 0.3175430E-03  (-0.5045772E-04)
 number of electron    1031.0001680 magnetization 
 augmentation part      248.2293099 magnetization 

 eigenvalues of (default mixing * dielectric matrix)
  average eigenvalue GAMMA=   0.5539
  0.9639  0.9639  0.0968  0.1909

  free energy =  -0.576310744653E+03  energy without entropy=  -0.576305259652E+03


--------------------------------------------------------------------------------------------------------




--------------------------------------- Iteration      9(   6)  ---------------------------------------


    POTLOK:  cpu time      0.0723: real time      0.0732
    SETDIJ:  cpu time      0.0193: real time      0.0194
    EDDIAG:  cpu time      5.6017: real time      5.6346
  RMM-DIIS:  cpu time      9.6528: real time      9.7322
    ORTHCH:  cpu time      1.4752: real time      1.4858
       DOS:  cpu time      0.0037: real time      0.0037
    CHARGE:  cpu time      0.4519: real time      0.4540
    MIXING:  cpu time      0.0023: real time      0.0023
    --------------------------------------------
      LOOP:  cpu time     17.2792: real time     17.4053

 eigenvalue-minimisations  :  6233
 total energy-change (2. order) :-0.1779088E-04  (-0.2761459E-04)
 number of electron    1031.0001680 magnetization 
 augmentation part      248.2296403 magnetization 

 eigenvalues of (default mixing * dielectric matrix)
  average eigenvalue GAMMA=   0.6184
  1.2612  1.2612  0.0968  0.2686  0.2043

  free energy =  -0.576310762444E+03  energy without entropy=  -0.576305243640E+03


--------------------------------------------------------------------------------------------------------




--------------------------------------- Iteration      9(   7)  ---------------------------------------


    POTLOK:  cpu time      0.0712: real time      0.0720
    SETDIJ:  cpu time      0.0058: real time      0.0059
    EDDIAG:  cpu time      5.3757: real time      5.4070
  RMM-DIIS:  cpu time      9.2233: real time      9.2997
    ORTHCH:  cpu time      1.4847: real time      1.4942
       DOS:  cpu time      0.0039: real time      0.0039
    CHARGE:  cpu time      0.4713: real time      0.4736
    MIXING:  cpu time      0.0025: real time      0.0025
    --------------------------------------------
      LOOP:  cpu time     16.6384: real time     16.7588

 eigenvalue-minimisations  :  5926
 total energy-change (2. order) : 0.4409830E-04  (-0.2339296E-04)
 number of electron    1031.0001680 magnetization 
 augmentation part      248.2301608 magnetization 

 eigenvalues of (default mixing * dielectric matrix)
  average eigenvalue GAMMA=   0.6391
  1.2682  1.2682  0.7682  0.0968  0.1945  0.2385

  free energy =  -0.576310718345E+03  energy without entropy=  -0.576305179974E+03


--------------------------------------------------------------------------------------------------------




--------------------------------------- Iteration      9(   8)  ---------------------------------------


    POTLOK:  cpu time      0.0762: real time      0.0771
    SETDIJ:  cpu time      0.0061: real time      0.0062
    EDDIAG:  cpu time      5.4425: real time      5.4715
  RMM-DIIS:  cpu time      8.7789: real time      8.8509
    ORTHCH:  cpu time      1.4737: real time      1.4847
       DOS:  cpu time      0.0047: real time      0.0047
    CHARGE:  cpu time      0.4583: real time      0.4616
    MIXING:  cpu time      0.0025: real time      0.0025
    --------------------------------------------
      LOOP:  cpu time     16.2430: real time     16.3591

 eigenvalue-minimisations  :  5607
 total energy-change (2. order) :-0.1208950E-04  (-0.5653903E-05)
 number of electron    1031.0001680 magnetization 
 augmentation part      248.2295751 magnetization 

 eigenvalues of (default mixing * dielectric matrix)
  average eigenvalue GAMMA=   0.6057
  1.2852  1.2852  0.9009  0.0968  0.2444  0.2444  0.1829

  free energy =  -0.576310730435E+03  energy without entropy=  -0.576305205064E+03


--------------------------------------------------------------------------------------------------------




--------------------------------------- Iteration      9(   9)  ---------------------------------------


    POTLOK:  cpu time      0.0614: real time      0.0621
    SETDIJ:  cpu time      0.0059: real time      0.0059
    EDDIAG:  cpu time      5.5069: real time      5.5374
  RMM-DIIS:  cpu time      6.3137: real time      6.3644
    ORTHCH:  cpu time      1.4997: real time      1.5095
       DOS:  cpu time      0.0365: real time      0.0366
    CHARGE:  cpu time      0.4543: real time      0.4567
    MIXING:  cpu time      0.0028: real time      0.0028
    --------------------------------------------
      LOOP:  cpu time     13.8813: real time     13.9754

 eigenvalue-minimisations  :  3886
 total energy-change (2. order) : 0.2243227E-04  (-0.1883876E-05)
 number of electron    1031.0001680 magnetization 
 augmentation part      248.2291229 magnetization 

 eigenvalues of (default mixing * dielectric matrix)
  average eigenvalue GAMMA=   0.6759
  1.2092  1.2092  1.1293  1.1293  0.0968  0.2540  0.1950  0.1840

  free energy =  -0.576310708003E+03  energy without entropy=  -0.576305173836E+03


--------------------------------------------------------------------------------------------------------




--------------------------------------- Iteration      9(  10)  ---------------------------------------


    POTLOK:  cpu time      0.0726: real time      0.0734
    SETDIJ:  cpu time      0.0062: real time      0.0062
    EDDIAG:  cpu time      5.3800: real time      5.4097
  RMM-DIIS:  cpu time      6.0006: real time      6.0490
    ORTHCH:  cpu time      1.5521: real time      1.5631
       DOS:  cpu time      0.0042: real time      0.0042
    --------------------------------------------
      LOOP:  cpu time     13.0156: real time     13.1055

 eigenvalue-minimisations  :  3681
 total energy-change (2. order) :-0.5899114E-05  (-0.1558777E-05)
 number of electron    1031.0001680 magnetization 
 augmentation part      248.2291229 magnetization 

  free energy =  -0.576310713902E+03  energy without entropy=  -0.576305177284E+03


--------------------------------------------------------------------------------------------------------




------------------------ aborting loop because EDIFF is reached ----------------------------------------





 total charge

# of ion       s       p       d       tot
------------------------------------------
    1        2.212   6.044   5.303  13.558
    2        2.211   6.044   5.304  13.559
    3        2.211   6.044   5.305  13.560
    4        2.211   6.044   5.302  13.557
    5        2.212   6.044   5.304  13.559
    6        2.211   6.044   5.303  13.558
    7        2.211   6.044   5.303  13.558
    8        2.211   6.044   5.305  13.560
    9        2.212   6.044   5.302  13.558
   10        2.211   6.044   5.305  13.559
   11        2.211   6.044   5.303  13.558
   12        2.211   6.044   5.304  13.559
   13        2.211   6.044   5.303  13.558
   14        2.211   6.044   5.304  13.558
   15        2.212   6.044   5.303  13.558
   16        2.212   6.044   5.302  13.557
   17        2.218   6.102   5.274  13.595
   18        2.218   6.102   5.274  13.595
   19        2.218   6.102   5.273  13.594
   20        2.218   6.102   5.270  13.589
   21        2.218   6.102   5.274  13.593
   22        2.218   6.102   5.273  13.593
   23        2.218   6.102   5.273  13.594
   24        2.218   6.102   5.274  13.594
   25        2.218   6.102   5.273  13.593
   26        2.218   6.102   5.273  13.594
   27        2.218   6.102   5.273  13.593
   28        2.218   6.102   5.274  13.594
   29        2.218   6.102   5.273  13.594
   30        2.218   6.102   5.273  13.593
   31        2.218   6.102   5.273  13.593
   32        2.218   6.102   5.274  13.594
   33        2.222   6.110   5.284  13.616
   34        2.223   6.112   5.283  13.618
   35        2.222   6.110   5.283  13.615
   36        2.221   6.107   5.279  13.607
   37        2.222   6.110   5.284  13.616
   38        2.221   6.109   5.284  13.614
   39        2.221   6.107   5.280  13.607
   40        2.222   6.110   5.283  13.615
   41        2.222   6.110   5.282  13.614
   42        2.222   6.107   5.287  13.616
   43        2.222   6.110   5.283  13.616
   44        2.222   6.110   5.283  13.616
   45        2.219   6.106   5.270  13.595
   46        2.222   6.107   5.287  13.616
   47        2.223   6.110   5.282  13.616
   48        2.223   6.110   5.282  13.616
   49        2.218   6.053   5.316  13.587
   50        2.218   6.053   5.316  13.587
   51        2.217   6.049   5.320  13.585
   52        2.216   6.050   5.342  13.609
   53        2.219   6.054   5.314  13.587
   54        2.219   6.054   5.314  13.587
   55        2.217   6.049   5.319  13.585
   56        2.217   6.050   5.315  13.582
   57        2.216   6.049   5.315  13.581
   58        2.204   6.075   5.283  13.563
   59        2.217   6.050   5.317  13.584
   60        2.217   6.050   5.317  13.584
   61        2.204   6.075   5.283  13.563
   62        2.216   6.049   5.316  13.581
   63        2.216   6.048   5.345  13.609
   64        2.217   6.050   5.318  13.585
   65        1.216   2.630   0.000   3.846
   66        0.630   0.081   0.000   0.710
   67        0.636   0.083   0.000   0.720
--------------------------------------------------
tot        144.352 391.730 338.791 874.874
 
    CHARGE:  cpu time      0.4807: real time      0.4834
    FORLOC:  cpu time      0.0171: real time      0.0172
    FORNL :  cpu time      2.6919: real time      2.7093
    STRESS:  cpu time      7.9807: real time      8.0273
    FORCOR:  cpu time      0.0683: real time      0.0689
    FORHAR:  cpu time      0.0299: real time      0.0300
    MIXING:  cpu time      0.0027: real time      0.0027
    OFIELD:  cpu time      0.0001: real time      0.0001

  FORCE on cell =-STRESS in cart. coord.  units (eV):
  Direction    XX          YY          ZZ          XY          YZ          ZX
  --------------------------------------------------------------------------------------
  Alpha Z  3956.67891  3956.67891  3956.67891
  Ewald  323864.49976323815.02436************     0.17538     4.41080     0.05051
  Hartree367552.64543367503.76322************     0.08557     2.69004     0.02052
  E(xc)   -5604.19592 -5603.94309 -5615.69547     0.00021    -0.00858    -0.00002
  Local  ************************738325.91484    -0.26499    -6.14814    -0.09044
  n-local  2352.52354  2353.27034  2309.59211     0.00159    -0.03924     0.00327
  augment  5363.42365  5363.27826  5349.20183     0.00314    -0.28787     0.00206
  Kinetic 20412.98037 20400.76011 20413.10699    -0.00064    -0.85375     0.02278
  Fock        0.00000     0.00000     0.00000     0.00000     0.00000     0.00000
  -------------------------------------------------------------------------------------
  Total     -64.62175   -62.97568   -24.94636     0.00026    -0.23674     0.00868
  in kB     -57.61919   -56.15149   -22.24312     0.00023    -0.21109     0.00774
  external pressure =      -45.34 kB  Pullay stress =        0.00 kB



--------------------------------------------------------------------------------------------------------



  FREE ENERGIE OF THE ION-ELECTRON SYSTEM (eV)
  ---------------------------------------------------
  free  energy   TOTEN  =      -576.31071390 eV

  energy  without entropy=     -576.30517728  energy(sigma->0) =     -576.30794559
 
 d Force = 0.1925365E-02[ 0.128E-02, 0.257E-02]  d Energy = 0.1752543E-02 0.173E-03
 d Force = 0.2293270E+03[ 0.229E+03, 0.229E+03]  d Ewald  = 0.2293270E+03-0.310E-05


--------------------------------------------------------------------------------------------------------


    POTLOK:  cpu time      0.0661: real time      0.0665


--------------------------------------------------------------------------------------------------------




--------------------------------------------------------------------------------------------------------


    WAVPRE:  cpu time      0.0273: real time      0.0294
    FEWALD:  cpu time      0.0014: real time      0.0014

 real space projection operators:
  total allocation   :      15960.16 KBytes
  max/ min on nodes  :       1285.79        672.74

    ORTHCH:  cpu time      2.5207: real time      2.5371
     LOOP+:  cpu time    210.8548: real time    212.5794


--------------------------------------- Ionic step       10  -------------------------------------------




--------------------------------------- Iteration     10(   1)  ---------------------------------------


    POTLOK:  cpu time      0.0607: real time      0.0621
    SETDIJ:  cpu time      0.0063: real time      0.0064
     EDDAV:  cpu time     47.3110: real time     47.7191
       DOS:  cpu time      0.0181: real time      0.0182
    CHARGE:  cpu time      0.4547: real time      0.4569
    MIXING:  cpu time      0.0028: real time      0.0028
    --------------------------------------------
      LOOP:  cpu time     47.8537: real time     48.2655

 eigenvalue-minimisations  :  6424
 total energy-change (2. order) : 0.4862578E-01  (-0.4002244E+00)
 number of electron    1031.0001672 magnetization 
 augmentation part      248.2295654 magnetization 

  free energy =  -0.576262082225E+03  energy without entropy=  -0.576256678164E+03


--------------------------------------------------------------------------------------------------------




--------------------------------------- Iteration     10(   2)  ---------------------------------------


    POTLOK:  cpu time      0.0619: real time      0.0641
    SETDIJ:  cpu time      0.0068: real time      0.0068
    EDDIAG:  cpu time      5.4444: real time      5.4753
  RMM-DIIS:  cpu time     10.6079: real time     10.6941
    ORTHCH:  cpu time      1.4919: real time      1.5017
       DOS:  cpu time      0.0034: real time      0.0034
    CHARGE:  cpu time      0.4559: real time      0.4581
    MIXING:  cpu time      0.0021: real time      0.0021
    --------------------------------------------
      LOOP:  cpu time     18.0743: real time     18.2058

 eigenvalue-minimisations  :  6790
 total energy-change (2. order) :-0.4685942E-01  (-0.4483440E-01)
 number of electron    1031.0001672 magnetization 
 augmentation part      248.2244586 magnetization 

 eigenvalues of (default mixing * dielectric matrix)
  average eigenvalue GAMMA=   0.3714
  0.3714

  free energy =  -0.576308941649E+03  energy without entropy=  -0.576303704013E+03


--------------------------------------------------------------------------------------------------------




--------------------------------------- Iteration     10(   3)  ---------------------------------------


    POTLOK:  cpu time      0.0626: real time      0.0634
    SETDIJ:  cpu time      0.0214: real time      0.0215
    EDDIAG:  cpu time      5.4866: real time      5.5188
  RMM-DIIS:  cpu time      9.5402: real time      9.6254
    ORTHCH:  cpu time      1.4834: real time      1.4949
       DOS:  cpu time      0.0035: real time      0.0036
    CHARGE:  cpu time      0.4555: real time      0.4580
    MIXING:  cpu time      0.0022: real time      0.0022
    --------------------------------------------
      LOOP:  cpu time     17.0554: real time     17.1878

 eigenvalue-minimisations  :  6245
 total energy-change (2. order) :-0.4098876E-02  (-0.7424276E-02)
 number of electron    1031.0001672 magnetization 
 augmentation part      248.2240262 magnetization 

 eigenvalues of (default mixing * dielectric matrix)
  average eigenvalue GAMMA=   0.3829
  0.6647  0.1010

  free energy =  -0.576313040524E+03  energy without entropy=  -0.576307816976E+03


--------------------------------------------------------------------------------------------------------




--------------------------------------- Iteration     10(   4)  ---------------------------------------


    POTLOK:  cpu time      0.0722: real time      0.0731
    SETDIJ:  cpu time      0.0065: real time      0.0065
    EDDIAG:  cpu time      5.5009: real time      5.5316
  RMM-DIIS:  cpu time     11.8859: real time     11.9835
    ORTHCH:  cpu time      1.4880: real time      1.4996
       DOS:  cpu time      0.0043: real time      0.0043
    CHARGE:  cpu time      0.4718: real time      0.4744
    MIXING:  cpu time      0.0023: real time      0.0024
    --------------------------------------------
      LOOP:  cpu time     19.4318: real time     19.5753

 eigenvalue-minimisations  :  7618
 total energy-change (2. order) : 0.8519004E-03  (-0.1575880E-02)
 number of electron    1031.0001672 magnetization 
 augmentation part      248.2240929 magnetization 

 eigenvalues of (default mixing * dielectric matrix)
  average eigenvalue GAMMA=   0.3848
  0.7278  0.3303  0.0963

  free energy =  -0.576312188624E+03  energy without entropy=  -0.576306702015E+03


--------------------------------------------------------------------------------------------------------




--------------------------------------- Iteration     10(   5)  ---------------------------------------


    POTLOK:  cpu time      0.0615: real time      0.0631
    SETDIJ:  cpu time      0.0059: real time      0.0060
    EDDIAG:  cpu time      5.5747: real time      5.6058
  RMM-DIIS:  cpu time      9.8959: real time      9.9753
    ORTHCH:  cpu time      1.5303: real time      1.5398
       DOS:  cpu time      0.0033: real time      0.0033
    CHARGE:  cpu time      0.4950: real time      0.4973
    MIXING:  cpu time      0.0024: real time      0.0024
    --------------------------------------------
      LOOP:  cpu time     17.5692: real time     17.6930

 eigenvalue-minimisations  :  6387
 total energy-change (2. order) : 0.1438297E-02  (-0.1995746E-03)
 number of electron    1031.0001672 magnetization 
 augmentation part      248.2284805 magnetization 

 eigenvalues of (default mixing * dielectric matrix)
  average eigenvalue GAMMA=   0.5562
  0.9716  0.9716  0.0964  0.1852

  free energy =  -0.576310750327E+03  energy without entropy=  -0.576305472834E+03


--------------------------------------------------------------------------------------------------------




--------------------------------------- Iteration     10(   6)  ---------------------------------------


    POTLOK:  cpu time      0.0744: real time      0.0767
    SETDIJ:  cpu time      0.0065: real time      0.0066
    EDDIAG:  cpu time      5.6317: real time      5.6654
  RMM-DIIS:  cpu time     10.0021: real time     10.0847
    ORTHCH:  cpu time      1.5222: real time      1.5327
       DOS:  cpu time      0.0061: real time      0.0061
    CHARGE:  cpu time      0.4713: real time      0.4739
    MIXING:  cpu time      0.0023: real time      0.0024
    --------------------------------------------
      LOOP:  cpu time     17.7167: real time     17.8484

 eigenvalue-minimisations  :  6448
 total energy-change (2. order) :-0.9255775E-05  (-0.1058711E-03)
 number of electron    1031.0001672 magnetization 
 augmentation part      248.2294275 magnetization 

 eigenvalues of (default mixing * dielectric matrix)
  average eigenvalue GAMMA=   0.6143
  1.2426  1.2426  0.0963  0.2017  0.2886

  free energy =  -0.576310759583E+03  energy without entropy=  -0.576305423416E+03


--------------------------------------------------------------------------------------------------------




--------------------------------------- Iteration     10(   7)  ---------------------------------------


    POTLOK:  cpu time      0.0643: real time      0.0668
    SETDIJ:  cpu time      0.0062: real time      0.0062
    EDDIAG:  cpu time      5.5603: real time      5.5955
  RMM-DIIS:  cpu time      9.6191: real time      9.7000
    ORTHCH:  cpu time      1.5023: real time      1.5126
       DOS:  cpu time      0.0177: real time      0.0178
    CHARGE:  cpu time      0.4518: real time      0.4543
    MIXING:  cpu time      0.0026: real time      0.0026
    --------------------------------------------
      LOOP:  cpu time     17.2243: real time     17.3558

 eigenvalue-minimisations  :  6216
 total energy-change (2. order) : 0.1421936E-03  (-0.8913778E-04)
 number of electron    1031.0001672 magnetization 
 augmentation part      248.2299962 magnetization 

 eigenvalues of (default mixing * dielectric matrix)
  average eigenvalue GAMMA=   0.6481
  1.2666  1.2666  0.8224  0.0963  0.1943  0.2423

  free energy =  -0.576310617389E+03  energy without entropy=  -0.576305252256E+03


--------------------------------------------------------------------------------------------------------




--------------------------------------- Iteration     10(   8)  ---------------------------------------


    POTLOK:  cpu time      0.0628: real time      0.0637
    SETDIJ:  cpu time      0.0060: real time      0.0060
    EDDIAG:  cpu time      5.4086: real time      5.4428
  RMM-DIIS:  cpu time     10.4331: real time     10.5310
    ORTHCH:  cpu time      1.4823: real time      1.4959
       DOS:  cpu time      0.0033: real time      0.0033
    CHARGE:  cpu time      0.4510: real time      0.4537
    MIXING:  cpu time      0.0026: real time      0.0026
    --------------------------------------------
      LOOP:  cpu time     17.8496: real time     17.9989

 eigenvalue-minimisations  :  6807
 total energy-change (2. order) :-0.3245167E-04  (-0.1856156E-04)
 number of electron    1031.0001672 magnetization 
 augmentation part      248.2289665 magnetization 

 eigenvalues of (default mixing * dielectric matrix)
  average eigenvalue GAMMA=   0.6073
  1.2878  1.2878  0.8886  0.0963  0.2524  0.2524  0.1858

  free energy =  -0.576310649841E+03  energy without entropy=  -0.576305292011E+03


--------------------------------------------------------------------------------------------------------




--------------------------------------- Iteration     10(   9)  ---------------------------------------


    POTLOK:  cpu time      0.0615: real time      0.0638
    SETDIJ:  cpu time      0.0060: real time      0.0060
    EDDIAG:  cpu time      5.4114: real time      5.4415
  RMM-DIIS:  cpu time      8.5825: real time      8.6515
    ORTHCH:  cpu time      1.5049: real time      1.5148
       DOS:  cpu time      0.0039: real time      0.0039
    CHARGE:  cpu time      0.4501: real time      0.4523
    MIXING:  cpu time      0.0028: real time      0.0028
    --------------------------------------------
      LOOP:  cpu time     16.0230: real time     16.1366

 eigenvalue-minimisations  :  5451
 total energy-change (2. order) : 0.7150273E-04  (-0.6563173E-05)
 number of electron    1031.0001672 magnetization 
 augmentation part      248.2280607 magnetization 

 eigenvalues of (default mixing * dielectric matrix)
  average eigenvalue GAMMA=   0.6984
  1.1997  1.1997  1.2282  1.2282  0.0963  0.2573  0.1929  0.1852

  free energy =  -0.576310578338E+03  energy without entropy=  -0.576305213727E+03


--------------------------------------------------------------------------------------------------------




--------------------------------------- Iteration     10(  10)  ---------------------------------------


    POTLOK:  cpu time      0.0644: real time      0.0652
    SETDIJ:  cpu time      0.0059: real time      0.0060
    EDDIAG:  cpu time      5.4129: real time      5.4442
  RMM-DIIS:  cpu time      8.6728: real time      8.7455
    ORTHCH:  cpu time      1.4846: real time      1.4949
       DOS:  cpu time      0.0044: real time      0.0044
    CHARGE:  cpu time      0.4537: real time      0.4564
    MIXING:  cpu time      0.0028: real time      0.0028
    --------------------------------------------
      LOOP:  cpu time     16.1015: real time     16.2193

 eigenvalue-minimisations  :  5500
 total energy-change (2. order) :-0.1915768E-04  (-0.5497723E-05)
 number of electron    1031.0001672 magnetization 
 augmentation part      248.2284694 magnetization 

 eigenvalues of (default mixing * dielectric matrix)
  average eigenvalue GAMMA=   0.7044
  1.9663  1.1635  1.1635  1.0561  0.0963  0.2749  0.2441  0.1929  0.1819

  free energy =  -0.576310597496E+03  energy without entropy=  -0.576305224846E+03


--------------------------------------------------------------------------------------------------------




--------------------------------------- Iteration     10(  11)  ---------------------------------------


    POTLOK:  cpu time      0.0623: real time      0.0631
    SETDIJ:  cpu time      0.0062: real time      0.0063
    EDDIAG:  cpu time      5.4476: real time      5.4796
  RMM-DIIS:  cpu time      6.7813: real time      6.8363
    ORTHCH:  cpu time      1.5466: real time      1.5576
       DOS:  cpu time      0.0048: real time      0.0048
    CHARGE:  cpu time      0.4821: real time      0.4847
    MIXING:  cpu time      0.0031: real time      0.0031
    --------------------------------------------
      LOOP:  cpu time     14.3340: real time     14.4354

 eigenvalue-minimisations  :  4164
 total energy-change (2. order) : 0.1946540E-04  (-0.2711093E-05)
 number of electron    1031.0001672 magnetization 
 augmentation part      248.2286687 magnetization 

 eigenvalues of (default mixing * dielectric matrix)
  average eigenvalue GAMMA=   0.7138
  2.3292  1.1277  1.1277  1.0091  0.5888  0.0963  0.2572  0.2275  0.1932  0.1810

  free energy =  -0.576310578031E+03  energy without entropy=  -0.576305221991E+03


--------------------------------------------------------------------------------------------------------




--------------------------------------- Iteration     10(  12)  ---------------------------------------


    POTLOK:  cpu time      0.0647: real time      0.0655
    SETDIJ:  cpu time      0.0064: real time      0.0065
    EDDIAG:  cpu time      5.4928: real time      5.5256
  RMM-DIIS:  cpu time      5.7054: real time      5.7525
    ORTHCH:  cpu time      1.5295: real time      1.5397
       DOS:  cpu time      0.0048: real time      0.0048
    --------------------------------------------
      LOOP:  cpu time     12.8035: real time     12.8944

 eigenvalue-minimisations  :  3571
 total energy-change (2. order) :-0.3028836E-06  (-0.6612692E-06)
 number of electron    1031.0001672 magnetization 
 augmentation part      248.2286687 magnetization 

  free energy =  -0.576310578333E+03  energy without entropy=  -0.576305220408E+03


--------------------------------------------------------------------------------------------------------




------------------------ aborting loop because EDIFF is reached ----------------------------------------





 total charge

# of ion       s       p       d       tot
------------------------------------------
    1        2.212   6.044   5.303  13.559
    2        2.211   6.044   5.304  13.559
    3        2.211   6.044   5.304  13.559
    4        2.211   6.044   5.303  13.558
    5        2.212   6.044   5.303  13.558
    6        2.211   6.044   5.303  13.558
    7        2.211   6.044   5.303  13.558
    8        2.211   6.044   5.304  13.559
    9        2.212   6.044   5.303  13.558
   10        2.211   6.044   5.305  13.559
   11        2.211   6.044   5.303  13.558
   12        2.211   6.044   5.303  13.558
   13        2.211   6.044   5.303  13.558
   14        2.211   6.044   5.305  13.559
   15        2.212   6.044   5.302  13.558
   16        2.212   6.044   5.302  13.558
   17        2.218   6.102   5.274  13.594
   18        2.218   6.102   5.274  13.594
   19        2.218   6.102   5.273  13.592
   20        2.217   6.101   5.269  13.588
   21        2.218   6.102   5.273  13.592
   22        2.218   6.102   5.273  13.592
   23        2.218   6.102   5.272  13.592
   24        2.218   6.102   5.273  13.593
   25        2.218   6.102   5.272  13.592
   26        2.218   6.102   5.273  13.592
   27        2.218   6.101   5.273  13.591
   28        2.218   6.102   5.273  13.592
   29        2.218   6.102   5.273  13.592
   30        2.218   6.102   5.272  13.592
   31        2.218   6.102   5.272  13.591
   32        2.218   6.102   5.273  13.592
   33        2.222   6.110   5.283  13.614
   34        2.223   6.112   5.282  13.617
   35        2.222   6.109   5.282  13.613
   36        2.221   6.107   5.279  13.606
   37        2.222   6.110   5.283  13.614
   38        2.221   6.109   5.284  13.614
   39        2.220   6.107   5.279  13.606
   40        2.222   6.109   5.282  13.613
   41        2.222   6.109   5.282  13.613
   42        2.222   6.107   5.287  13.616
   43        2.222   6.110   5.282  13.614
   44        2.222   6.110   5.282  13.614
   45        2.218   6.106   5.270  13.594
   46        2.222   6.107   5.287  13.616
   47        2.223   6.110   5.281  13.614
   48        2.223   6.110   5.281  13.614
   49        2.218   6.053   5.316  13.588
   50        2.219   6.053   5.316  13.588
   51        2.217   6.049   5.319  13.584
   52        2.216   6.050   5.342  13.609
   53        2.219   6.054   5.315  13.587
   54        2.219   6.054   5.315  13.587
   55        2.217   6.049   5.319  13.584
   56        2.217   6.050   5.316  13.583
   57        2.216   6.049   5.315  13.581
   58        2.204   6.075   5.284  13.563
   59        2.217   6.050   5.316  13.583
   60        2.217   6.050   5.317  13.585
   61        2.204   6.075   5.284  13.563
   62        2.216   6.049   5.315  13.581
   63        2.216   6.048   5.345  13.608
   64        2.217   6.050   5.317  13.585
   65        1.216   2.630   0.000   3.846
   66        0.635   0.083   0.000   0.718
   67        0.632   0.081   0.000   0.713
--------------------------------------------------
tot        144.346 391.720 338.773 874.839
 
    CHARGE:  cpu time      0.4934: real time      0.4961
    FORLOC:  cpu time      0.0174: real time      0.0175
    FORNL :  cpu time      2.7134: real time      2.7307
    STRESS:  cpu time      8.0731: real time      8.1241
    FORCOR:  cpu time      0.0757: real time      0.0761
    FORHAR:  cpu time      0.0276: real time      0.0280
    MIXING:  cpu time      0.0029: real time      0.0029
    OFIELD:  cpu time      0.0001: real time      0.0000

  FORCE on cell =-STRESS in cart. coord.  units (eV):
  Direction    XX          YY          ZZ          XY          YZ          ZX
  --------------------------------------------------------------------------------------
  Alpha Z  3956.67891  3956.67891  3956.67891
  Ewald  323401.65910323352.05884************     0.16428     5.15098     0.05447
  Hartree367093.00386367043.75117************     0.07126     2.73850     0.02559
  E(xc)   -5604.04782 -5603.79378 -5615.58831     0.00018    -0.00792     0.00003
  Local  ************************737397.27091    -0.23079    -6.62426    -0.08817
  n-local  2352.12152  2352.86923  2308.61368     0.00095    -0.06752     0.00319
  augment  5363.38341  5363.24666  5349.31962     0.00185    -0.32055     0.00066
  Kinetic 20412.52770 20400.41415 20412.31474    -0.00625    -0.96767     0.01491
  Fock        0.00000     0.00000     0.00000     0.00000     0.00000     0.00000
  -------------------------------------------------------------------------------------
  Total     -64.99692   -63.21704   -26.48277     0.00149    -0.09845     0.01067
  in kB     -57.95371   -56.36670   -23.61304     0.00133    -0.08778     0.00951
  external pressure =      -45.98 kB  Pullay stress =        0.00 kB



--------------------------------------------------------------------------------------------------------



  FREE ENERGIE OF THE ION-ELECTRON SYSTEM (eV)
  ---------------------------------------------------
  free  energy   TOTEN  =      -576.31057833 eV

  energy  without entropy=     -576.30522041  energy(sigma->0) =     -576.30789937
 
 d Force = 0.2301059E-03[-0.210E-02, 0.256E-02]  d Energy =-0.1355684E-03 0.366E-03
 d Force = 0.4583424E+03[ 0.458E+03, 0.459E+03]  d Ewald  = 0.4583424E+03-0.284E-04


--------------------------------------------------------------------------------------------------------


    POTLOK:  cpu time      0.0632: real time      0.0637


--------------------------------------------------------------------------------------------------------




--------------------------------------------------------------------------------------------------------


    WAVPRE:  cpu time      0.0264: real time      0.0286
    FEWALD:  cpu time      0.0014: real time      0.0015

 real space projection operators:
  total allocation   :      15948.41 KBytes
  max/ min on nodes  :       1285.23        671.76

    ORTHCH:  cpu time      2.4221: real time      2.4385
     LOOP+:  cpu time    245.9761: real time    247.8487


--------------------------------------- Ionic step       11  -------------------------------------------




--------------------------------------- Iteration     11(   1)  ---------------------------------------


    POTLOK:  cpu time      0.0576: real time      0.0591
    SETDIJ:  cpu time      0.0061: real time      0.0061
     EDDAV:  cpu time     47.3328: real time     47.7286
       DOS:  cpu time      0.0161: real time      0.0161
    CHARGE:  cpu time      0.4807: real time      0.4831
    MIXING:  cpu time      0.0025: real time      0.0025
    --------------------------------------------
      LOOP:  cpu time     47.8957: real time     48.2956

 eigenvalue-minimisations  :  6432
 total energy-change (2. order) : 0.9199976E-02  (-0.8128540E-01)
 number of electron    1031.0001674 magnetization 
 augmentation part      248.2294556 magnetization 

  free energy =  -0.576301378055E+03  energy without entropy=  -0.576295953317E+03


--------------------------------------------------------------------------------------------------------




--------------------------------------- Iteration     11(   2)  ---------------------------------------


    POTLOK:  cpu time      0.0614: real time      0.0622
    SETDIJ:  cpu time      0.0059: real time      0.0060
    EDDIAG:  cpu time      5.4584: real time      5.4878
  RMM-DIIS:  cpu time     10.4449: real time     10.5323
    ORTHCH:  cpu time      1.4755: real time      1.4852
       DOS:  cpu time      0.0046: real time      0.0046
    CHARGE:  cpu time      0.4534: real time      0.4557
    MIXING:  cpu time      0.0022: real time      0.0022
    --------------------------------------------
      LOOP:  cpu time     17.9064: real time     18.0360

 eigenvalue-minimisations  :  6753
 total energy-change (2. order) :-0.9940304E-02  (-0.9120135E-02)
 number of electron    1031.0001674 magnetization 
 augmentation part      248.2302850 magnetization 

 eigenvalues of (default mixing * dielectric matrix)
  average eigenvalue GAMMA=   0.3256
  0.3256

  free energy =  -0.576311318359E+03  energy without entropy=  -0.576305821477E+03


--------------------------------------------------------------------------------------------------------




--------------------------------------- Iteration     11(   3)  ---------------------------------------


    POTLOK:  cpu time      0.0755: real time      0.0764
    SETDIJ:  cpu time      0.0061: real time      0.0062
    EDDIAG:  cpu time      5.4320: real time      5.4630
  RMM-DIIS:  cpu time      9.4560: real time      9.5358
    ORTHCH:  cpu time      1.4778: real time      1.4877
       DOS:  cpu time      0.0183: real time      0.0183
    CHARGE:  cpu time      0.4735: real time      0.4759
    MIXING:  cpu time      0.0021: real time      0.0021
    --------------------------------------------
      LOOP:  cpu time     16.9413: real time     17.0654

 eigenvalue-minimisations  :  6182
 total energy-change (2. order) :-0.2134719E-03  (-0.1488178E-02)
 number of electron    1031.0001674 magnetization 
 augmentation part      248.2309694 magnetization 

 eigenvalues of (default mixing * dielectric matrix)
  average eigenvalue GAMMA=   0.3712
  0.6427  0.0997

  free energy =  -0.576311531831E+03  energy without entropy=  -0.576306007762E+03


--------------------------------------------------------------------------------------------------------




--------------------------------------- Iteration     11(   4)  ---------------------------------------


    POTLOK:  cpu time      0.0639: real time      0.0646
    SETDIJ:  cpu time      0.0058: real time      0.0059
    EDDIAG:  cpu time      5.3801: real time      5.4109
  RMM-DIIS:  cpu time     11.6837: real time     11.7817
    ORTHCH:  cpu time      1.5343: real time      1.5462
       DOS:  cpu time      0.0057: real time      0.0058
    CHARGE:  cpu time      0.4768: real time      0.4793
    MIXING:  cpu time      0.0022: real time      0.0022
    --------------------------------------------
      LOOP:  cpu time     19.1526: real time     19.2966

 eigenvalue-minimisations  :  7525
 total energy-change (2. order) : 0.1528830E-04  (-0.3185187E-03)
 number of electron    1031.0001674 magnetization 
 augmentation part      248.2307667 magnetization 

 eigenvalues of (default mixing * dielectric matrix)
  average eigenvalue GAMMA=   0.3810
  0.7064  0.3393  0.0973

  free energy =  -0.576311516542E+03  energy without entropy=  -0.576306122517E+03


--------------------------------------------------------------------------------------------------------




--------------------------------------- Iteration     11(   5)  ---------------------------------------


    POTLOK:  cpu time      0.0743: real time      0.0751
    SETDIJ:  cpu time      0.0066: real time      0.0067
    EDDIAG:  cpu time      5.3885: real time      5.4201
  RMM-DIIS:  cpu time      9.2578: real time      9.3356
    ORTHCH:  cpu time      1.5318: real time      1.5424
       DOS:  cpu time      0.0047: real time      0.0047
    CHARGE:  cpu time      0.4890: real time      0.4917
    MIXING:  cpu time      0.0025: real time      0.0025
    --------------------------------------------
      LOOP:  cpu time     16.7552: real time     16.8787

 eigenvalue-minimisations  :  5974
 total energy-change (2. order) : 0.2712688E-03  (-0.3990420E-04)
 number of electron    1031.0001674 magnetization 
 augmentation part      248.2288935 magnetization 

 eigenvalues of (default mixing * dielectric matrix)
  average eigenvalue GAMMA=   0.5823
  1.0222  1.0222  0.0972  0.1875

  free energy =  -0.576311245274E+03  energy without entropy=  -0.576305758293E+03


--------------------------------------------------------------------------------------------------------




--------------------------------------- Iteration     11(   6)  ---------------------------------------


    POTLOK:  cpu time      0.0618: real time      0.0646
    SETDIJ:  cpu time      0.0060: real time      0.0061
    EDDIAG:  cpu time      5.4898: real time      5.5208
  RMM-DIIS:  cpu time      9.4827: real time      9.5652
    ORTHCH:  cpu time      1.5320: real time      1.5423
       DOS:  cpu time      0.0052: real time      0.0053
    CHARGE:  cpu time      0.4842: real time      0.4865
    MIXING:  cpu time      0.0024: real time      0.0024
    --------------------------------------------
      LOOP:  cpu time     17.0643: real time     17.1932

 eigenvalue-minimisations  :  6048
 total energy-change (2. order) :-0.1250030E-04  (-0.2345802E-04)
 number of electron    1031.0001674 magnetization 
 augmentation part      248.2284824 magnetization 

 eigenvalues of (default mixing * dielectric matrix)
  average eigenvalue GAMMA=   0.6207
  1.2617  1.2617  0.0971  0.1999  0.2832

  free energy =  -0.576311257774E+03  energy without entropy=  -0.576305803413E+03


--------------------------------------------------------------------------------------------------------




--------------------------------------- Iteration     11(   7)  ---------------------------------------


    POTLOK:  cpu time      0.0622: real time      0.0630
    SETDIJ:  cpu time      0.0058: real time      0.0059
    EDDIAG:  cpu time      5.4006: real time      5.4329
  RMM-DIIS:  cpu time      9.1337: real time      9.2111
    ORTHCH:  cpu time      1.5403: real time      1.5511
       DOS:  cpu time      0.0037: real time      0.0037
    CHARGE:  cpu time      0.4945: real time      0.4971
    MIXING:  cpu time      0.0025: real time      0.0025
    --------------------------------------------
      LOOP:  cpu time     16.6433: real time     16.7674

 eigenvalue-minimisations  :  5815
 total energy-change (2. order) : 0.3446685E-04  (-0.1734496E-04)
 number of electron    1031.0001674 magnetization 
 augmentation part      248.2284341 magnetization 

 eigenvalues of (default mixing * dielectric matrix)
  average eigenvalue GAMMA=   0.6394
  1.2646  1.2646  0.7754  0.0971  0.1946  0.2402

  free energy =  -0.576311223307E+03  energy without entropy=  -0.576305779477E+03


--------------------------------------------------------------------------------------------------------




--------------------------------------- Iteration     11(   8)  ---------------------------------------


    POTLOK:  cpu time      0.0639: real time      0.0647
    SETDIJ:  cpu time      0.0064: real time      0.0064
    EDDIAG:  cpu time      5.5383: real time      5.5716
  RMM-DIIS:  cpu time      7.8541: real time      7.9204
    ORTHCH:  cpu time      1.4981: real time      1.5091
       DOS:  cpu time      0.0033: real time      0.0033
    --------------------------------------------
      LOOP:  cpu time     14.9640: real time     15.0755

 eigenvalue-minimisations  :  4995
 total energy-change (2. order) :-0.8126139E-05  (-0.4146665E-05)
 number of electron    1031.0001674 magnetization 
 augmentation part      248.2284341 magnetization 

  free energy =  -0.576311231433E+03  energy without entropy=  -0.576305786079E+03


--------------------------------------------------------------------------------------------------------




------------------------ aborting loop because EDIFF is reached ----------------------------------------





 total charge

# of ion       s       p       d       tot
------------------------------------------
    1        2.212   6.044   5.305  13.560
    2        2.211   6.044   5.306  13.561
    3        2.211   6.044   5.305  13.560
    4        2.211   6.044   5.303  13.558
    5        2.212   6.044   5.305  13.561
    6        2.211   6.044   5.305  13.560
    7        2.211   6.044   5.303  13.558
    8        2.211   6.044   5.305  13.560
    9        2.212   6.044   5.303  13.558
   10        2.211   6.044   5.304  13.558
   11        2.211   6.044   5.303  13.558
   12        2.211   6.044   5.304  13.559
   13        2.211   6.044   5.300  13.555
   14        2.211   6.044   5.304  13.558
   15        2.212   6.044   5.302  13.557
   16        2.212   6.044   5.302  13.557
   17        2.218   6.102   5.274  13.594
   18        2.218   6.102   5.274  13.594
   19        2.218   6.102   5.273  13.593
   20        2.217   6.101   5.269  13.588
   21        2.218   6.102   5.273  13.593
   22        2.218   6.102   5.273  13.593
   23        2.218   6.102   5.273  13.593
   24        2.218   6.102   5.273  13.593
   25        2.218   6.102   5.272  13.592
   26        2.218   6.102   5.272  13.592
   27        2.218   6.101   5.272  13.592
   28        2.218   6.102   5.273  13.593
   29        2.218   6.102   5.272  13.592
   30        2.218   6.102   5.272  13.592
   31        2.218   6.102   5.272  13.591
   32        2.218   6.102   5.273  13.593
   33        2.222   6.110   5.284  13.615
   34        2.223   6.112   5.282  13.618
   35        2.222   6.110   5.282  13.614
   36        2.221   6.107   5.279  13.606
   37        2.222   6.110   5.284  13.615
   38        2.221   6.109   5.284  13.614
   39        2.221   6.107   5.279  13.606
   40        2.222   6.110   5.282  13.614
   41        2.222   6.110   5.282  13.614
   42        2.222   6.107   5.287  13.616
   43        2.222   6.110   5.283  13.615
   44        2.222   6.110   5.283  13.615
   45        2.219   6.106   5.269  13.594
   46        2.222   6.107   5.287  13.616
   47        2.223   6.110   5.282  13.615
   48        2.223   6.110   5.282  13.615
   49        2.218   6.053   5.316  13.587
   50        2.218   6.053   5.316  13.587
   51        2.217   6.049   5.318  13.584
   52        2.216   6.050   5.342  13.608
   53        2.219   6.054   5.314  13.587
   54        2.219   6.054   5.315  13.587
   55        2.217   6.049   5.318  13.584
   56        2.217   6.050   5.315  13.582
   57        2.216   6.049   5.315  13.581
   58        2.204   6.075   5.284  13.563
   59        2.217   6.050   5.317  13.583
   60        2.217   6.050   5.318  13.585
   61        2.204   6.075   5.284  13.563
   62        2.216   6.049   5.315  13.581
   63        2.216   6.048   5.346  13.610
   64        2.217   6.050   5.318  13.585
   65        1.216   2.630   0.000   3.846
   66        0.633   0.082   0.000   0.715
   67        0.634   0.082   0.000   0.716
--------------------------------------------------
tot        144.349 391.725 338.780 874.853
 
    CHARGE:  cpu time      0.4502: real time      0.4527
    FORLOC:  cpu time      0.0163: real time      0.0164
    FORNL :  cpu time      2.6607: real time      2.6787
    STRESS:  cpu time      7.9522: real time      8.0016
    FORCOR:  cpu time      0.0657: real time      0.0661
    FORHAR:  cpu time      0.0272: real time      0.0273
    MIXING:  cpu time      0.0025: real time      0.0026
    OFIELD:  cpu time      0.0000: real time      0.0000

  FORCE on cell =-STRESS in cart. coord.  units (eV):
  Direction    XX          YY          ZZ          XY          YZ          ZX
  --------------------------------------------------------------------------------------
  Alpha Z  3956.67891  3956.67891  3956.67891
  Ewald  323610.18570323560.64343************     0.16925     4.81791     0.05266
  Hartree367295.30282367246.23528************     0.07657     2.68206     0.02399
  E(xc)   -5604.11277 -5603.85927 -5615.63517     0.00019    -0.00817     0.00000
  Local  ************************737810.71684    -0.24391    -6.37839    -0.08898
  n-local  2352.30717  2353.05301  2309.08138     0.00129    -0.05941     0.00402
  augment  5363.40673  5363.26057  5349.28138     0.00231    -0.30361     0.00117
  Kinetic 20412.67060 20400.48638 20412.66780    -0.00448    -0.91110     0.01791
  Fock        0.00000     0.00000     0.00000     0.00000     0.00000     0.00000
  -------------------------------------------------------------------------------------
  Total     -64.81039   -63.09552   -25.90505     0.00122    -0.16072     0.01077
  in kB     -57.78739   -56.25834   -23.09792     0.00109    -0.14330     0.00960
  external pressure =      -45.71 kB  Pullay stress =        0.00 kB



--------------------------------------------------------------------------------------------------------



  FREE ENERGIE OF THE ION-ELECTRON SYSTEM (eV)
  ---------------------------------------------------
  free  energy   TOTEN  =      -576.31123143 eV

  energy  without entropy=     -576.30578608  energy(sigma->0) =     -576.30850876
 
 d Force = 0.4876100E-03[ 0.281E-04, 0.947E-03]  d Energy = 0.6530997E-03-0.165E-03
 d Force =-0.2065041E+03[-0.207E+03,-0.206E+03]  d Ewald  =-0.2065041E+03 0.227E-05


--------------------------------------------------------------------------------------------------------


    POTLOK:  cpu time      0.0628: real time      0.0634


--------------------------------------------------------------------------------------------------------




--------------------------------------------------------------------------------------------------------


    WAVPRE:  cpu time      0.0273: real time      0.0294
    FEWALD:  cpu time      0.0013: real time      0.0013

 real space projection operators:
  total allocation   :      15948.69 KBytes
  max/ min on nodes  :       1285.37        671.76

    ORTHCH:  cpu time      2.3378: real time      2.3521
     LOOP+:  cpu time    180.9503: real time    182.3261


--------------------------------------- Ionic step       12  -------------------------------------------




--------------------------------------- Iteration     12(   1)  ---------------------------------------


    POTLOK:  cpu time      0.0569: real time      0.0582
    SETDIJ:  cpu time      0.0061: real time      0.0061
     EDDAV:  cpu time     47.3364: real time     47.7448
       DOS:  cpu time      0.0154: real time      0.0154
    CHARGE:  cpu time      0.4725: real time      0.4751
    MIXING:  cpu time      0.0021: real time      0.0022
    --------------------------------------------
      LOOP:  cpu time     47.8893: real time     48.3018

 eigenvalue-minimisations  :  6458
 total energy-change (2. order) :-0.7476308E-04  (-0.5203694E-03)
 number of electron    1031.0001672 magnetization 
 augmentation part      248.2292127 magnetization 

  free energy =  -0.576311298070E+03  energy without entropy=  -0.576305857782E+03


--------------------------------------------------------------------------------------------------------




--------------------------------------- Iteration     12(   2)  ---------------------------------------


    POTLOK:  cpu time      0.0698: real time      0.0710
    SETDIJ:  cpu time      0.0074: real time      0.0074
    EDDIAG:  cpu time      5.4038: real time      5.4356
  RMM-DIIS:  cpu time     10.3250: real time     10.4113
    ORTHCH:  cpu time      1.5284: real time      1.5391
       DOS:  cpu time      0.0055: real time      0.0056
    CHARGE:  cpu time      0.4551: real time      0.4576
    MIXING:  cpu time      0.0022: real time      0.0022
    --------------------------------------------
      LOOP:  cpu time     17.7972: real time     17.9297

 eigenvalue-minimisations  :  6583
 total energy-change (2. order) :-0.5662744E-04  (-0.4550190E-04)
 number of electron    1031.0001672 magnetization 
 augmentation part      248.2291745 magnetization 

 eigenvalues of (default mixing * dielectric matrix)
  average eigenvalue GAMMA=   0.3215
  0.3215

  free energy =  -0.576311354697E+03  energy without entropy=  -0.576305908976E+03


--------------------------------------------------------------------------------------------------------




--------------------------------------- Iteration     12(   3)  ---------------------------------------


    POTLOK:  cpu time      0.0698: real time      0.0726
    SETDIJ:  cpu time      0.0063: real time      0.0063
    EDDIAG:  cpu time      5.4728: real time      5.5045
  RMM-DIIS:  cpu time      8.1291: real time      8.1973
    ORTHCH:  cpu time      1.5263: real time      1.5379
       DOS:  cpu time      0.0045: real time      0.0045
    --------------------------------------------
      LOOP:  cpu time     15.2087: real time     15.3231

 eigenvalue-minimisations  :  5176
 total energy-change (2. order) : 0.3386143E-05  (-0.8030686E-05)
 number of electron    1031.0001672 magnetization 
 augmentation part      248.2291745 magnetization 

  free energy =  -0.576311351311E+03  energy without entropy=  -0.576305903142E+03


--------------------------------------------------------------------------------------------------------




------------------------ aborting loop because EDIFF is reached ----------------------------------------





 total charge

# of ion       s       p       d       tot
------------------------------------------
    1        2.212   6.044   5.304  13.559
    2        2.211   6.044   5.305  13.560
    3        2.211   6.044   5.305  13.560
    4        2.211   6.044   5.304  13.559
    5        2.212   6.044   5.304  13.559
    6        2.211   6.044   5.304  13.559
    7        2.211   6.044   5.304  13.559
    8        2.211   6.044   5.305  13.560
    9        2.212   6.044   5.304  13.559
   10        2.211   6.044   5.305  13.560
   11        2.211   6.044   5.304  13.559
   12        2.211   6.044   5.304  13.559
   13        2.211   6.044   5.303  13.558
   14        2.211   6.044   5.305  13.560
   15        2.212   6.044   5.303  13.559
   16        2.212   6.044   5.303  13.559
   17        2.218   6.102   5.274  13.595
   18        2.218   6.102   5.274  13.595
   19        2.218   6.102   5.273  13.593
   20        2.217   6.101   5.269  13.588
   21        2.218   6.102   5.274  13.593
   22        2.218   6.102   5.274  13.593
   23        2.218   6.102   5.273  13.593
   24        2.218   6.102   5.274  13.593
   25        2.218   6.102   5.273  13.593
   26        2.218   6.102   5.273  13.593
   27        2.218   6.101   5.273  13.592
   28        2.218   6.102   5.274  13.593
   29        2.218   6.102   5.273  13.593
   30        2.218   6.102   5.273  13.593
   31        2.218   6.102   5.272  13.592
   32        2.218   6.102   5.274  13.593
   33        2.222   6.110   5.283  13.614
   34        2.223   6.112   5.282  13.617
   35        2.222   6.110   5.282  13.614
   36        2.221   6.107   5.279  13.606
   37        2.222   6.110   5.283  13.614
   38        2.221   6.109   5.283  13.613
   39        2.221   6.107   5.279  13.606
   40        2.222   6.110   5.282  13.614
   41        2.222   6.110   5.282  13.613
   42        2.222   6.107   5.287  13.616
   43        2.222   6.110   5.282  13.614
   44        2.222   6.110   5.282  13.614
   45        2.219   6.106   5.270  13.594
   46        2.222   6.107   5.287  13.616
   47        2.223   6.110   5.281  13.614
   48        2.223   6.110   5.281  13.614
   49        2.218   6.053   5.316  13.587
   50        2.218   6.053   5.316  13.587
   51        2.217   6.049   5.318  13.584
   52        2.216   6.050   5.342  13.608
   53        2.219   6.054   5.314  13.587
   54        2.219   6.054   5.314  13.587
   55        2.217   6.049   5.318  13.584
   56        2.217   6.050   5.316  13.582
   57        2.216   6.049   5.315  13.581
   58        2.204   6.075   5.284  13.563
   59        2.217   6.050   5.316  13.583
   60        2.217   6.050   5.317  13.584
   61        2.204   6.075   5.284  13.563
   62        2.216   6.049   5.315  13.581
   63        2.216   6.048   5.344  13.608
   64        2.217   6.050   5.317  13.584
   65        1.216   2.631   0.000   3.846
   66        0.633   0.082   0.000   0.716
   67        0.634   0.082   0.000   0.717
--------------------------------------------------
tot        144.349 391.725 338.781 874.856
 
    CHARGE:  cpu time      0.4805: real time      0.4831
    FORLOC:  cpu time      0.0339: real time      0.0341
    FORNL :  cpu time      2.7924: real time      2.8098
    STRESS:  cpu time      8.1002: real time      8.1500
    FORCOR:  cpu time      0.0786: real time      0.0791
    FORHAR:  cpu time      0.0288: real time      0.0290
    MIXING:  cpu time      0.0020: real time      0.0020
    OFIELD:  cpu time      0.0000: real time      0.0000

  FORCE on cell =-STRESS in cart. coord.  units (eV):
  Direction    XX          YY          ZZ          XY          YZ          ZX
  --------------------------------------------------------------------------------------
  Alpha Z  3956.67891  3956.67891  3956.67891
  Ewald  323610.62322323561.35898************     0.17364     4.90354     0.04816
  Hartree367298.44053367249.41879************     0.07614     2.76009     0.02458
  E(xc)   -5604.11468 -5603.86088 -5615.63668     0.00020    -0.00812    -0.00001
  Local  ************************737814.29776    -0.24486    -6.54308    -0.08275
  n-local  2352.27619  2353.02212  2309.03102     0.00088    -0.05601     0.00235
  augment  5363.41189  5363.26786  5349.28592     0.00183    -0.30465     0.00075
  Kinetic 20412.75394 20400.57249 20412.69408    -0.00667    -0.90880     0.01629
  Fock        0.00000     0.00000     0.00000     0.00000     0.00000     0.00000
  -------------------------------------------------------------------------------------
  Total     -64.78544   -63.04560   -25.78982     0.00116    -0.15703     0.00937
  in kB     -57.76514   -56.21384   -22.99518     0.00103    -0.14001     0.00835
  external pressure =      -45.66 kB  Pullay stress =        0.00 kB



--------------------------------------------------------------------------------------------------------



  FREE ENERGIE OF THE ION-ELECTRON SYSTEM (eV)
  ---------------------------------------------------
  free  energy   TOTEN  =      -576.31135131 eV

  energy  without entropy=     -576.30590314  energy(sigma->0) =     -576.30862723
 
 d Force = 0.1185223E-03[ 0.914E-04, 0.146E-03]  d Energy = 0.1198782E-03-0.136E-05
 d Force =-0.7048471E+00[-0.705E+00,-0.705E+00]  d Ewald  =-0.7048471E+00-0.155E-07


--------------------------------------------------------------------------------------------------------


    POTLOK:  cpu time      0.0635: real time      0.0639


--------------------------------------------------------------------------------------------------------


 Conjugate gradient step on ions:
 trial-energy change:   -0.000120  1 .order   -0.000119   -0.000146   -0.000091
  (g-gl).g =-0.380E-04      g.g   = 0.215E-03  gl.gl    = 0.346E-02
 g(Force)  = 0.215E-03   g(Stress)= 0.000E+00 ortho     =-0.348E-04
 gamma     =  -0.01099
 trial     =   0.67500
 opt step  =   1.81418  (harmonic =   1.81418) maximal distance =0.00161694
 next E    =  -576.311427   (d E  =  -0.00020)


--------------------------------------------------------------------------------------------------------


    WAVPRE:  cpu time      0.0274: real time      0.0292
    FEWALD:  cpu time      0.0015: real time      0.0015

 real space projection operators:
  total allocation   :      15947.32 KBytes
  max/ min on nodes  :       1285.37        671.76

    ORTHCH:  cpu time      2.4406: real time      2.4564
     LOOP+:  cpu time     94.9660: real time     95.7179


--------------------------------------- Ionic step       13  -------------------------------------------




--------------------------------------- Iteration     13(   1)  ---------------------------------------


    POTLOK:  cpu time      0.0614: real time      0.0626
    SETDIJ:  cpu time      0.0072: real time      0.0072
     EDDAV:  cpu time     47.5725: real time     47.9873
       DOS:  cpu time      0.0666: real time      0.0669
    CHARGE:  cpu time      0.4565: real time      0.4590
    MIXING:  cpu time      0.0020: real time      0.0020
    --------------------------------------------
      LOOP:  cpu time     48.1662: real time     48.5850

 eigenvalue-minimisations  :  6488
 total energy-change (2. order) :-0.1067689E-04  (-0.1504711E-02)
 number of electron    1031.0001667 magnetization 
 augmentation part      248.2292603 magnetization 

  free energy =  -0.576311365374E+03  energy without entropy=  -0.576305934346E+03


--------------------------------------------------------------------------------------------------------




--------------------------------------- Iteration     13(   2)  ---------------------------------------


    POTLOK:  cpu time      0.0781: real time      0.0813
    SETDIJ:  cpu time      0.0059: real time      0.0059
    EDDIAG:  cpu time      5.4171: real time      5.4442
  RMM-DIIS:  cpu time     10.4708: real time     10.5529
    ORTHCH:  cpu time      1.4723: real time      1.4828
       DOS:  cpu time      0.0040: real time      0.0040
    CHARGE:  cpu time      0.4678: real time      0.4698
    MIXING:  cpu time      0.0021: real time      0.0021
    --------------------------------------------
      LOOP:  cpu time     17.9181: real time     18.0430

 eigenvalue-minimisations  :  6780
 total energy-change (2. order) :-0.3498598E-03  (-0.1290064E-03)
 number of electron    1031.0001667 magnetization 
 augmentation part      248.2290591 magnetization 

 eigenvalues of (default mixing * dielectric matrix)
  average eigenvalue GAMMA=   0.1619
  0.1619

  free energy =  -0.576311715234E+03  energy without entropy=  -0.576306240682E+03


--------------------------------------------------------------------------------------------------------




--------------------------------------- Iteration     13(   3)  ---------------------------------------


    POTLOK:  cpu time      0.0612: real time      0.0620
    SETDIJ:  cpu time      0.0059: real time      0.0059
    EDDIAG:  cpu time      5.3841: real time      5.4106
  RMM-DIIS:  cpu time      9.0840: real time      9.1551
    ORTHCH:  cpu time      1.4809: real time      1.4897
       DOS:  cpu time      0.0034: real time      0.0034
    CHARGE:  cpu time      0.4654: real time      0.4673
    MIXING:  cpu time      0.0023: real time      0.0023
    --------------------------------------------
      LOOP:  cpu time     16.4871: real time     16.5963

 eigenvalue-minimisations  :  5830
 total energy-change (2. order) : 0.2070556E-03  (-0.2127125E-04)
 number of electron    1031.0001667 magnetization 
 augmentation part      248.2295150 magnetization 

 eigenvalues of (default mixing * dielectric matrix)
  average eigenvalue GAMMA=   0.2337
  0.3599  0.1076

  free energy =  -0.576311508179E+03  energy without entropy=  -0.576306068686E+03


--------------------------------------------------------------------------------------------------------




--------------------------------------- Iteration     13(   4)  ---------------------------------------


    POTLOK:  cpu time      0.0630: real time      0.0637
    SETDIJ:  cpu time      0.0061: real time      0.0061
    EDDIAG:  cpu time      5.4159: real time      5.4426
  RMM-DIIS:  cpu time      9.4843: real time      9.5570
    ORTHCH:  cpu time      1.4853: real time      1.4942
       DOS:  cpu time      0.0034: real time      0.0035
    CHARGE:  cpu time      0.4612: real time      0.4631
    MIXING:  cpu time      0.0022: real time      0.0022
    --------------------------------------------
      LOOP:  cpu time     16.9214: real time     17.0324

 eigenvalue-minimisations  :  5937
 total energy-change (2. order) : 0.1369623E-04  (-0.6621741E-05)
 number of electron    1031.0001667 magnetization 
 augmentation part      248.2294671 magnetization 

 eigenvalues of (default mixing * dielectric matrix)
  average eigenvalue GAMMA=   0.4019
  0.9151  0.0984  0.1920

  free energy =  -0.576311494482E+03  energy without entropy=  -0.576306057051E+03


--------------------------------------------------------------------------------------------------------




--------------------------------------- Iteration     13(   5)  ---------------------------------------


    POTLOK:  cpu time      0.0622: real time      0.0638
    SETDIJ:  cpu time      0.0058: real time      0.0059
    EDDIAG:  cpu time      5.3771: real time      5.4037
  RMM-DIIS:  cpu time      5.8872: real time      5.9330
    ORTHCH:  cpu time      1.5439: real time      1.5529
       DOS:  cpu time      0.0036: real time      0.0036
    --------------------------------------------
      LOOP:  cpu time     12.8798: real time     12.9628

 eigenvalue-minimisations  :  3607
 total energy-change (2. order) : 0.5017850E-05  (-0.1169811E-05)
 number of electron    1031.0001667 magnetization 
 augmentation part      248.2294671 magnetization 

  free energy =  -0.576311489465E+03  energy without entropy=  -0.576306052539E+03


--------------------------------------------------------------------------------------------------------




------------------------ aborting loop because EDIFF is reached ----------------------------------------





 total charge

# of ion       s       p       d       tot
------------------------------------------
    1        2.212   6.044   5.304  13.559
    2        2.211   6.044   5.304  13.559
    3        2.211   6.044   5.304  13.559
    4        2.211   6.044   5.303  13.558
    5        2.212   6.044   5.304  13.559
    6        2.211   6.044   5.303  13.558
    7        2.211   6.044   5.303  13.558
    8        2.211   6.044   5.304  13.559
    9        2.212   6.044   5.303  13.559
   10        2.211   6.044   5.304  13.559
   11        2.211   6.044   5.303  13.558
   12        2.211   6.044   5.303  13.558
   13        2.211   6.044   5.302  13.557
   14        2.211   6.044   5.304  13.559
   15        2.212   6.044   5.302  13.558
   16        2.212   6.044   5.302  13.558
   17        2.218   6.102   5.274  13.594
   18        2.218   6.102   5.274  13.594
   19        2.218   6.102   5.273  13.593
   20        2.217   6.101   5.269  13.588
   21        2.218   6.102   5.274  13.593
   22        2.218   6.102   5.273  13.593
   23        2.218   6.102   5.273  13.593
   24        2.218   6.102   5.273  13.593
   25        2.218   6.102   5.272  13.593
   26        2.218   6.102   5.273  13.593
   27        2.218   6.101   5.273  13.592
   28        2.218   6.102   5.273  13.593
   29        2.218   6.102   5.273  13.593
   30        2.218   6.102   5.272  13.593
   31        2.218   6.102   5.272  13.592
   32        2.218   6.102   5.273  13.593
   33        2.222   6.110   5.283  13.615
   34        2.223   6.112   5.282  13.617
   35        2.222   6.110   5.282  13.614
   36        2.221   6.107   5.279  13.607
   37        2.222   6.110   5.283  13.615
   38        2.221   6.109   5.284  13.614
   39        2.221   6.107   5.279  13.607
   40        2.222   6.110   5.282  13.614
   41        2.222   6.110   5.282  13.614
   42        2.222   6.107   5.287  13.616
   43        2.222   6.110   5.282  13.615
   44        2.222   6.110   5.282  13.615
   45        2.219   6.106   5.270  13.594
   46        2.222   6.107   5.287  13.616
   47        2.223   6.110   5.282  13.615
   48        2.223   6.110   5.282  13.615
   49        2.218   6.053   5.316  13.587
   50        2.218   6.053   5.316  13.587
   51        2.217   6.049   5.319  13.584
   52        2.216   6.050   5.342  13.609
   53        2.219   6.054   5.314  13.587
   54        2.219   6.054   5.314  13.587
   55        2.217   6.049   5.319  13.584
   56        2.217   6.050   5.316  13.583
   57        2.216   6.049   5.316  13.581
   58        2.204   6.075   5.284  13.563
   59        2.217   6.050   5.317  13.583
   60        2.217   6.050   5.318  13.585
   61        2.204   6.075   5.284  13.563
   62        2.216   6.049   5.316  13.581
   63        2.216   6.048   5.345  13.609
   64        2.217   6.050   5.318  13.585
   65        1.216   2.631   0.000   3.847
   66        0.634   0.083   0.000   0.717
   67        0.635   0.083   0.000   0.718
--------------------------------------------------
tot        144.351 391.727 338.781 874.859
 
    CHARGE:  cpu time      0.4887: real time      0.4909
    FORLOC:  cpu time      0.0166: real time      0.0167
    FORNL :  cpu time      2.6788: real time      2.6927
    STRESS:  cpu time      8.0254: real time      8.0666
    FORCOR:  cpu time      0.0671: real time      0.0675
    FORHAR:  cpu time      0.0276: real time      0.0277
    MIXING:  cpu time      0.0022: real time      0.0022
    OFIELD:  cpu time      0.0000: real time      0.0000

  FORCE on cell =-STRESS in cart. coord.  units (eV):
  Direction    XX          YY          ZZ          XY          YZ          ZX
  --------------------------------------------------------------------------------------
  Alpha Z  3956.67891  3956.67891  3956.67891
  Ewald  323611.36312323562.56685************     0.18106     5.04786     0.04058
  Hartree367301.40888367252.55358************     0.08137     2.83625     0.02261
  E(xc)   -5604.11919 -5603.86478 -5615.64126     0.00020    -0.00796    -0.00004
  Local  ************************737818.01588    -0.25831    -6.75693    -0.07493
  n-local  2352.26919  2353.01033  2309.01939     0.00196    -0.05314     0.00254
  augment  5363.40987  5363.25837  5349.27764     0.00192    -0.30361     0.00104
  Kinetic 20412.79326 20400.56706 20412.70749    -0.00602    -0.90537     0.01742
  Fock        0.00000     0.00000     0.00000     0.00000     0.00000     0.00000
  -------------------------------------------------------------------------------------
  Total     -64.83166   -63.04525   -25.76966     0.00218    -0.14289     0.00923
  in kB     -57.80635   -56.21352   -22.97720     0.00195    -0.12741     0.00823
  external pressure =      -45.67 kB  Pullay stress =        0.00 kB



--------------------------------------------------------------------------------------------------------



  FREE ENERGIE OF THE ION-ELECTRON SYSTEM (eV)
  ---------------------------------------------------
  free  energy   TOTEN  =      -576.31148946 eV

  energy  without entropy=     -576.30605254  energy(sigma->0) =     -576.30877100
 
 d Force = 0.1245280E-03[ 0.947E-04, 0.154E-03]  d Energy = 0.1381532E-03-0.136E-04
 d Force =-0.1191029E+01[-0.119E+01,-0.119E+01]  d Ewald  =-0.1191029E+01-0.647E-07


--------------------------------------------------------------------------------------------------------


    POTLOK:  cpu time      0.0711: real time      0.0715


--------------------------------------------------------------------------------------------------------




--------------------------------------------------------------------------------------------------------


    WAVPRE:  cpu time      0.0396: real time      0.0415
    FEWALD:  cpu time      0.0020: real time      0.0020

 real space projection operators:
  total allocation   :      15946.02 KBytes
  max/ min on nodes  :       1285.41        671.62

    ORTHCH:  cpu time      2.3935: real time      2.4068
     LOOP+:  cpu time    126.2172: real time    127.1398


--------------------------------------- Ionic step       14  -------------------------------------------




--------------------------------------- Iteration     14(   1)  ---------------------------------------


    POTLOK:  cpu time      0.0616: real time      0.0629
    SETDIJ:  cpu time      0.0070: real time      0.0071
     EDDAV:  cpu time     47.5199: real time     47.8982
       DOS:  cpu time      0.0149: real time      0.0150
    CHARGE:  cpu time      0.4515: real time      0.4535
    MIXING:  cpu time      0.0019: real time      0.0020
    --------------------------------------------
      LOOP:  cpu time     48.0570: real time     48.4387

 eigenvalue-minimisations  :  6448
 total energy-change (2. order) : 0.5156364E-03  (-0.5874010E-02)
 number of electron    1031.0001658 magnetization 
 augmentation part      248.2291065 magnetization 

  free energy =  -0.576310978846E+03  energy without entropy=  -0.576305550836E+03


--------------------------------------------------------------------------------------------------------




--------------------------------------- Iteration     14(   2)  ---------------------------------------


    POTLOK:  cpu time      0.0820: real time      0.0828
    SETDIJ:  cpu time      0.0061: real time      0.0061
    EDDIAG:  cpu time      5.3764: real time      5.4032
  RMM-DIIS:  cpu time     10.3881: real time     10.4715
    ORTHCH:  cpu time      1.4766: real time      1.4866
       DOS:  cpu time      0.0035: real time      0.0035
    CHARGE:  cpu time      0.4503: real time      0.4521
    MIXING:  cpu time      0.0021: real time      0.0022
    --------------------------------------------
      LOOP:  cpu time     17.7850: real time     17.9078

 eigenvalue-minimisations  :  6771
 total energy-change (2. order) :-0.4613893E-03  (-0.4883781E-03)
 number of electron    1031.0001658 magnetization 
 augmentation part      248.2302786 magnetization 

 eigenvalues of (default mixing * dielectric matrix)
  average eigenvalue GAMMA=   0.5852
  0.5852

  free energy =  -0.576311440235E+03  energy without entropy=  -0.576306029663E+03


--------------------------------------------------------------------------------------------------------




--------------------------------------- Iteration     14(   3)  ---------------------------------------


    POTLOK:  cpu time      0.0609: real time      0.0617
    SETDIJ:  cpu time      0.0060: real time      0.0060
    EDDIAG:  cpu time      5.3734: real time      5.3998
  RMM-DIIS:  cpu time      8.9837: real time      9.0549
    ORTHCH:  cpu time      1.4762: real time      1.4847
       DOS:  cpu time      0.0053: real time      0.0053
    CHARGE:  cpu time      0.4670: real time      0.4690
    MIXING:  cpu time      0.0023: real time      0.0023
    --------------------------------------------
      LOOP:  cpu time     16.3748: real time     16.4837

 eigenvalue-minimisations  :  5859
 total energy-change (2. order) :-0.8060329E-04  (-0.8187236E-04)
 number of electron    1031.0001658 magnetization 
 augmentation part      248.2295893 magnetization 

 eigenvalues of (default mixing * dielectric matrix)
  average eigenvalue GAMMA=   0.5837
  0.9819  0.1855

  free energy =  -0.576311520839E+03  energy without entropy=  -0.576306074525E+03


--------------------------------------------------------------------------------------------------------




--------------------------------------- Iteration     14(   4)  ---------------------------------------


    POTLOK:  cpu time      0.0610: real time      0.0617
    SETDIJ:  cpu time      0.0058: real time      0.0058
    EDDIAG:  cpu time      5.4166: real time      5.4436
  RMM-DIIS:  cpu time     11.2017: real time     11.2896
    ORTHCH:  cpu time      1.4821: real time      1.4912
       DOS:  cpu time      0.0033: real time      0.0033
    CHARGE:  cpu time      0.4552: real time      0.4570
    MIXING:  cpu time      0.0021: real time      0.0021
    --------------------------------------------
      LOOP:  cpu time     18.6277: real time     18.7544

 eigenvalue-minimisations  :  7163
 total energy-change (2. order) : 0.8366915E-05  (-0.1892559E-04)
 number of electron    1031.0001658 magnetization 
 augmentation part      248.2298295 magnetization 

 eigenvalues of (default mixing * dielectric matrix)
  average eigenvalue GAMMA=   0.4749
  0.9986  0.2438  0.1823

  free energy =  -0.576311512472E+03  energy without entropy=  -0.576306074154E+03


--------------------------------------------------------------------------------------------------------




--------------------------------------- Iteration     14(   5)  ---------------------------------------


    POTLOK:  cpu time      0.0625: real time      0.0632
    SETDIJ:  cpu time      0.0058: real time      0.0058
    EDDIAG:  cpu time      5.4144: real time      5.4426
  RMM-DIIS:  cpu time      6.9159: real time      6.9691
    ORTHCH:  cpu time      1.5930: real time      1.6023
       DOS:  cpu time      0.0036: real time      0.0036
    CHARGE:  cpu time      0.4886: real time      0.4906
    MIXING:  cpu time      0.0026: real time      0.0026
    --------------------------------------------
      LOOP:  cpu time     14.4864: real time     14.5797

 eigenvalue-minimisations  :  4305
 total energy-change (2. order) : 0.2384221E-04  (-0.3232333E-05)
 number of electron    1031.0001658 magnetization 
 augmentation part      248.2298804 magnetization 

 eigenvalues of (default mixing * dielectric matrix)
  average eigenvalue GAMMA=   0.5930
  1.0394  1.0394  0.1954  0.0977

  free energy =  -0.576311488629E+03  energy without entropy=  -0.576306063992E+03


--------------------------------------------------------------------------------------------------------




--------------------------------------- Iteration     14(   6)  ---------------------------------------


    POTLOK:  cpu time      0.0620: real time      0.0635
    SETDIJ:  cpu time      0.0063: real time      0.0063
    EDDIAG:  cpu time      5.5305: real time      5.5585
  RMM-DIIS:  cpu time      6.2802: real time      6.3294
    ORTHCH:  cpu time      1.5453: real time      1.5542
       DOS:  cpu time      0.0048: real time      0.0048
    --------------------------------------------
      LOOP:  cpu time     13.4291: real time     13.5168

 eigenvalue-minimisations  :  3929
 total energy-change (2. order) :-0.2086977E-05  (-0.2258382E-05)
 number of electron    1031.0001658 magnetization 
 augmentation part      248.2298804 magnetization 

  free energy =  -0.576311490716E+03  energy without entropy=  -0.576306059704E+03


--------------------------------------------------------------------------------------------------------




------------------------ aborting loop because EDIFF is reached ----------------------------------------





 total charge

# of ion       s       p       d       tot
------------------------------------------
    1        2.212   6.044   5.303  13.558
    2        2.211   6.044   5.303  13.558
    3        2.211   6.044   5.305  13.559
    4        2.211   6.044   5.303  13.558
    5        2.212   6.044   5.303  13.558
    6        2.211   6.044   5.302  13.557
    7        2.211   6.044   5.303  13.558
    8        2.211   6.044   5.305  13.559
    9        2.212   6.044   5.303  13.559
   10        2.211   6.044   5.305  13.559
   11        2.211   6.044   5.303  13.558
   12        2.211   6.044   5.303  13.558
   13        2.211   6.044   5.304  13.560
   14        2.211   6.044   5.305  13.560
   15        2.212   6.044   5.303  13.558
   16        2.212   6.044   5.303  13.559
   17        2.218   6.102   5.274  13.594
   18        2.218   6.102   5.274  13.594
   19        2.218   6.102   5.273  13.593
   20        2.217   6.101   5.269  13.588
   21        2.218   6.102   5.273  13.592
   22        2.218   6.102   5.273  13.593
   23        2.218   6.102   5.273  13.593
   24        2.218   6.102   5.273  13.593
   25        2.218   6.102   5.273  13.593
   26        2.218   6.102   5.273  13.593
   27        2.218   6.101   5.273  13.592
   28        2.218   6.102   5.274  13.594
   29        2.218   6.102   5.273  13.593
   30        2.218   6.102   5.273  13.593
   31        2.218   6.102   5.273  13.593
   32        2.218   6.102   5.274  13.594
   33        2.222   6.110   5.283  13.615
   34        2.223   6.112   5.282  13.617
   35        2.222   6.110   5.283  13.615
   36        2.221   6.107   5.279  13.607
   37        2.222   6.110   5.283  13.615
   38        2.221   6.109   5.284  13.614
   39        2.221   6.107   5.279  13.607
   40        2.222   6.110   5.283  13.615
   41        2.222   6.110   5.282  13.614
   42        2.222   6.107   5.287  13.616
   43        2.222   6.110   5.282  13.615
   44        2.222   6.110   5.282  13.615
   45        2.219   6.106   5.269  13.594
   46        2.222   6.107   5.287  13.616
   47        2.223   6.110   5.282  13.615
   48        2.223   6.110   5.282  13.615
   49        2.218   6.053   5.315  13.586
   50        2.218   6.053   5.315  13.586
   51        2.217   6.049   5.319  13.585
   52        2.216   6.050   5.343  13.609
   53        2.219   6.054   5.314  13.586
   54        2.219   6.054   5.314  13.586
   55        2.217   6.049   5.319  13.585
   56        2.216   6.050   5.316  13.583
   57        2.216   6.049   5.316  13.581
   58        2.204   6.075   5.283  13.563
   59        2.217   6.050   5.316  13.583
   60        2.217   6.050   5.318  13.585
   61        2.204   6.075   5.283  13.562
   62        2.216   6.049   5.315  13.581
   63        2.216   6.048   5.344  13.608
   64        2.217   6.050   5.318  13.585
   65        1.216   2.633   0.000   3.849
   66        0.637   0.084   0.000   0.720
   67        0.636   0.083   0.000   0.720
--------------------------------------------------
tot        144.355 391.730 338.780 874.865
 
    CHARGE:  cpu time      0.4665: real time      0.4685
    FORLOC:  cpu time      0.0180: real time      0.0181
    FORNL :  cpu time      2.7074: real time      2.7215
    STRESS:  cpu time      8.0572: real time      8.1003
    FORCOR:  cpu time      0.0787: real time      0.0792
    FORHAR:  cpu time      0.0280: real time      0.0281
    MIXING:  cpu time      0.0023: real time      0.0024
    OFIELD:  cpu time      0.0000: real time      0.0000

  FORCE on cell =-STRESS in cart. coord.  units (eV):
  Direction    XX          YY          ZZ          XY          YZ          ZX
  --------------------------------------------------------------------------------------
  Alpha Z  3956.67891  3956.67891  3956.67891
  Ewald  323612.84865323564.98361************     0.19598     5.33569     0.02551
  Hartree367303.44827367254.89081************     0.08728     3.03145     0.02233
  E(xc)   -5604.12654 -5603.87097 -5615.64905     0.00022    -0.00761    -0.00009
  Local  ************************737821.40853    -0.27562    -7.23371    -0.05817
  n-local  2352.23130  2352.96318  2308.96403     0.00137    -0.05275     0.00159
  augment  5363.41437  5363.25206  5349.28326     0.00132    -0.30243     0.00078
  Kinetic 20412.86872 20400.57953 20412.76080    -0.00850    -0.89615     0.01630
  Fock        0.00000     0.00000     0.00000     0.00000     0.00000     0.00000
  -------------------------------------------------------------------------------------
  Total     -64.85695   -62.97855   -25.75707     0.00204    -0.12552     0.00824
  in kB     -57.82890   -56.15405   -22.96597     0.00182    -0.11192     0.00735
  external pressure =      -45.65 kB  Pullay stress =        0.00 kB



--------------------------------------------------------------------------------------------------------



  FREE ENERGIE OF THE ION-ELECTRON SYSTEM (eV)
  ---------------------------------------------------
  free  energy   TOTEN  =      -576.31149072 eV

  energy  without entropy=     -576.30605970  energy(sigma->0) =     -576.30877521
 
 d Force =-0.7817393E-06[-0.191E-03, 0.189E-03]  d Energy = 0.1251872E-05-0.203E-05
 d Force =-0.2387574E+01[-0.239E+01,-0.238E+01]  d Ewald  =-0.2387574E+01-0.327E-07


--------------------------------------------------------------------------------------------------------


    POTLOK:  cpu time      0.0640: real time      0.0644


--------------------------------------------------------------------------------------------------------




--------------------------------------------------------------------------------------------------------


    WAVPRE:  cpu time      0.0274: real time      0.0296
    FEWALD:  cpu time      0.0014: real time      0.0014

 real space projection operators:
  total allocation   :      15946.80 KBytes
  max/ min on nodes  :       1285.37        671.62

    ORTHCH:  cpu time      2.3542: real time      2.3678
     LOOP+:  cpu time    142.5943: real time    143.5943


--------------------------------------- Ionic step       15  -------------------------------------------




--------------------------------------- Iteration     15(   1)  ---------------------------------------


    POTLOK:  cpu time      0.0895: real time      0.0910
    SETDIJ:  cpu time      0.0059: real time      0.0060
     EDDAV:  cpu time     46.8291: real time     47.2012
       DOS:  cpu time      0.0246: real time      0.0247
    CHARGE:  cpu time      0.4178: real time      0.4193
    MIXING:  cpu time      0.0019: real time      0.0019
    --------------------------------------------
      LOOP:  cpu time     47.3689: real time     47.7441

 eigenvalue-minimisations  :  6440
 total energy-change (2. order) : 0.9004635E-04  (-0.1529675E-02)
 number of electron    1031.0001663 magnetization 
 augmentation part      248.2297296 magnetization 

  free energy =  -0.576311398583E+03  energy without entropy=  -0.576305960057E+03


--------------------------------------------------------------------------------------------------------




--------------------------------------- Iteration     15(   2)  ---------------------------------------


    POTLOK:  cpu time      0.0598: real time      0.0605
    SETDIJ:  cpu time      0.0057: real time      0.0057
    EDDIAG:  cpu time      5.1083: real time      5.1312
  RMM-DIIS:  cpu time     10.1422: real time     10.2203
    ORTHCH:  cpu time      1.4278: real time      1.4354
       DOS:  cpu time      0.0044: real time      0.0044
    CHARGE:  cpu time      0.4344: real time      0.4358
    MIXING:  cpu time      0.0022: real time      0.0022
    --------------------------------------------
      LOOP:  cpu time     17.1847: real time     17.2956

 eigenvalue-minimisations  :  6691
 total energy-change (2. order) :-0.1431648E-03  (-0.1300843E-03)
 number of electron    1031.0001663 magnetization 
 augmentation part      248.2296007 magnetization 

 eigenvalues of (default mixing * dielectric matrix)
  average eigenvalue GAMMA=   0.3473
  0.3473

  free energy =  -0.576311541748E+03  energy without entropy=  -0.576306115174E+03


--------------------------------------------------------------------------------------------------------




--------------------------------------- Iteration     15(   3)  ---------------------------------------


    POTLOK:  cpu time      0.0588: real time      0.0594
    SETDIJ:  cpu time      0.0056: real time      0.0057
    EDDIAG:  cpu time      5.1208: real time      5.1466
  RMM-DIIS:  cpu time      8.7080: real time      8.7816
    ORTHCH:  cpu time      1.4208: real time      1.4297
       DOS:  cpu time      0.0055: real time      0.0056
    CHARGE:  cpu time      0.4201: real time      0.4217
    MIXING:  cpu time      0.0021: real time      0.0021
    --------------------------------------------
      LOOP:  cpu time     15.7417: real time     15.8524

 eigenvalue-minimisations  :  5723
 total energy-change (2. order) : 0.1481385E-07  (-0.2144385E-04)
 number of electron    1031.0001662 magnetization 
 augmentation part      248.2292433 magnetization 

 eigenvalues of (default mixing * dielectric matrix)
  average eigenvalue GAMMA=   0.4614
  0.7515  0.1714

  free energy =  -0.576311541733E+03  energy without entropy=  -0.576306108662E+03


--------------------------------------------------------------------------------------------------------




--------------------------------------- Iteration     15(   4)  ---------------------------------------


    POTLOK:  cpu time      0.0606: real time      0.0625
    SETDIJ:  cpu time      0.0058: real time      0.0058
    EDDIAG:  cpu time      5.1211: real time      5.1453
  RMM-DIIS:  cpu time      8.4854: real time      8.5493
    ORTHCH:  cpu time      1.4396: real time      1.4475
       DOS:  cpu time      0.0046: real time      0.0046
    CHARGE:  cpu time      0.4191: real time      0.4206
    MIXING:  cpu time      0.0022: real time      0.0022
    --------------------------------------------
      LOOP:  cpu time     15.5383: real time     15.6379

 eigenvalue-minimisations  :  5402
 total energy-change (2. order) :-0.1218723E-04  (-0.4851577E-05)
 number of electron    1031.0001662 magnetization 
 augmentation part      248.2293546 magnetization 

 eigenvalues of (default mixing * dielectric matrix)
  average eigenvalue GAMMA=   0.4053
  0.9098  0.2078  0.0983

  free energy =  -0.576311553920E+03  energy without entropy=  -0.576306109283E+03


--------------------------------------------------------------------------------------------------------




--------------------------------------- Iteration     15(   5)  ---------------------------------------


    POTLOK:  cpu time      0.0644: real time      0.0664
    SETDIJ:  cpu time      0.0059: real time      0.0060
    EDDIAG:  cpu time      5.1416: real time      5.1653
  RMM-DIIS:  cpu time      5.4188: real time      5.4589
    ORTHCH:  cpu time      1.4343: real time      1.4421
       DOS:  cpu time      0.0048: real time      0.0048
    CHARGE:  cpu time      0.4164: real time      0.4180
    MIXING:  cpu time      0.0023: real time      0.0023
    --------------------------------------------
      LOOP:  cpu time     12.4886: real time     12.5636

 eigenvalue-minimisations  :  3388
 total energy-change (2. order) : 0.1922587E-04  (-0.9110804E-06)
 number of electron    1031.0001662 magnetization 
 augmentation part      248.2295090 magnetization 

 eigenvalues of (default mixing * dielectric matrix)
  average eigenvalue GAMMA=   0.4589
  0.7740  0.7740  0.1898  0.0979

  free energy =  -0.576311534694E+03  energy without entropy=  -0.576306100855E+03


--------------------------------------------------------------------------------------------------------




--------------------------------------- Iteration     15(   6)  ---------------------------------------


    POTLOK:  cpu time      0.0586: real time      0.0603
    SETDIJ:  cpu time      0.0055: real time      0.0055
    EDDIAG:  cpu time      5.0983: real time      5.1218
  RMM-DIIS:  cpu time      4.9425: real time      4.9787
    ORTHCH:  cpu time      1.4192: real time      1.4276
       DOS:  cpu time      0.0042: real time      0.0042
    --------------------------------------------
      LOOP:  cpu time     11.5283: real time     11.5982

 eigenvalue-minimisations  :  3043
 total energy-change (2. order) : 0.1309381E-06  (-0.3976596E-06)
 number of electron    1031.0001662 magnetization 
 augmentation part      248.2295090 magnetization 

  free energy =  -0.576311534563E+03  energy without entropy=  -0.576306102638E+03


--------------------------------------------------------------------------------------------------------




------------------------ aborting loop because EDIFF is reached ----------------------------------------





 total charge

# of ion       s       p       d       tot
------------------------------------------
    1        2.212   6.044   5.304  13.559
    2        2.211   6.044   5.304  13.559
    3        2.211   6.044   5.304  13.559
    4        2.211   6.044   5.303  13.558
    5        2.212   6.044   5.304  13.559
    6        2.211   6.044   5.303  13.558
    7        2.211   6.044   5.303  13.558
    8        2.211   6.044   5.304  13.559
    9        2.212   6.044   5.303  13.559
   10        2.211   6.044   5.304  13.559
   11        2.211   6.044   5.303  13.558
   12        2.211   6.044   5.303  13.558
   13        2.211   6.044   5.302  13.557
   14        2.211   6.044   5.304  13.559
   15        2.212   6.044   5.302  13.558
   16        2.212   6.044   5.302  13.558
   17        2.218   6.102   5.275  13.595
   18        2.218   6.102   5.275  13.595
   19        2.218   6.102   5.273  13.593
   20        2.217   6.101   5.269  13.588
   21        2.218   6.102   5.274  13.593
   22        2.218   6.102   5.274  13.593
   23        2.218   6.102   5.273  13.593
   24        2.218   6.102   5.274  13.593
   25        2.218   6.102   5.273  13.593
   26        2.218   6.102   5.273  13.593
   27        2.218   6.101   5.273  13.592
   28        2.218   6.102   5.273  13.593
   29        2.218   6.102   5.273  13.593
   30        2.218   6.102   5.273  13.593
   31        2.218   6.102   5.272  13.592
   32        2.218   6.102   5.273  13.593
   33        2.222   6.110   5.283  13.614
   34        2.223   6.112   5.282  13.617
   35        2.222   6.110   5.282  13.614
   36        2.221   6.107   5.279  13.607
   37        2.222   6.110   5.283  13.614
   38        2.221   6.109   5.283  13.613
   39        2.221   6.107   5.279  13.607
   40        2.222   6.110   5.282  13.614
   41        2.222   6.110   5.282  13.614
   42        2.222   6.107   5.287  13.616
   43        2.222   6.110   5.282  13.614
   44        2.222   6.110   5.282  13.614
   45        2.219   6.106   5.270  13.595
   46        2.222   6.107   5.287  13.616
   47        2.223   6.110   5.282  13.615
   48        2.223   6.110   5.282  13.615
   49        2.218   6.053   5.316  13.587
   50        2.218   6.053   5.316  13.587
   51        2.217   6.049   5.318  13.584
   52        2.216   6.050   5.342  13.608
   53        2.219   6.054   5.314  13.587
   54        2.219   6.054   5.314  13.587
   55        2.217   6.049   5.318  13.584
   56        2.217   6.050   5.316  13.583
   57        2.216   6.049   5.315  13.581
   58        2.204   6.075   5.284  13.563
   59        2.217   6.050   5.317  13.583
   60        2.217   6.050   5.318  13.585
   61        2.204   6.075   5.284  13.563
   62        2.216   6.049   5.315  13.581
   63        2.216   6.048   5.345  13.609
   64        2.217   6.050   5.318  13.585
   65        1.216   2.632   0.000   3.848
   66        0.635   0.083   0.000   0.719
   67        0.636   0.083   0.000   0.718
--------------------------------------------------
tot        144.353 391.729 338.780 874.862
 
    CHARGE:  cpu time      0.4187: real time      0.4202
    FORLOC:  cpu time      0.0149: real time      0.0149
    FORNL :  cpu time      2.5866: real time      2.5975
    STRESS:  cpu time      7.5995: real time      7.6309
    FORCOR:  cpu time      0.0698: real time      0.0701
    FORHAR:  cpu time      0.0260: real time      0.0261
    MIXING:  cpu time      0.0023: real time      0.0023
    OFIELD:  cpu time      0.0000: real time      0.0000

  FORCE on cell =-STRESS in cart. coord.  units (eV):
  Direction    XX          YY          ZZ          XY          YZ          ZX
  --------------------------------------------------------------------------------------
  Alpha Z  3956.67891  3956.67891  3956.67891
  Ewald  323612.10187323563.77010************     0.18847     5.19132     0.03307
  Hartree367302.08401367253.36523************     0.08591     2.91592     0.02122
  E(xc)   -5604.12380 -5603.86884 -5615.64643     0.00021    -0.00773    -0.00007
  Local  ************************737819.34442    -0.27025    -6.97546    -0.06703
  n-local  2352.25808  2352.98990  2308.99713     0.00239    -0.05440     0.00238
  augment  5363.40852  5363.25083  5349.27743     0.00187    -0.30270     0.00121
  Kinetic 20412.81984 20400.56283 20412.73753    -0.00593    -0.89918     0.01801
  Fock        0.00000     0.00000     0.00000     0.00000     0.00000     0.00000
  -------------------------------------------------------------------------------------
  Total     -64.85734   -63.01934   -25.78420     0.00268    -0.13224     0.00878
  in kB     -57.82925   -56.19042   -22.99016     0.00239    -0.11791     0.00783
  external pressure =      -45.67 kB  Pullay stress =        0.00 kB



--------------------------------------------------------------------------------------------------------



  FREE ENERGIE OF THE ION-ELECTRON SYSTEM (eV)
  ---------------------------------------------------
  free  energy   TOTEN  =      -576.31153456 eV

  energy  without entropy=     -576.30610264  energy(sigma->0) =     -576.30881860
 
 d Force = 0.4986221E-04[ 0.381E-05, 0.959E-04]  d Energy = 0.4384707E-04 0.602E-05
 d Force = 0.1199611E+01[ 0.120E+01, 0.120E+01]  d Ewald  = 0.1199612E+01-0.449E-06


--------------------------------------------------------------------------------------------------------


    POTLOK:  cpu time      0.0595: real time      0.0598


--------------------------------------------------------------------------------------------------------




--------------------------------------------------------------------------------------------------------


    WAVPRE:  cpu time      0.0274: real time      0.0295
    FEWALD:  cpu time      0.0013: real time      0.0013

 real space projection operators:
  total allocation   :      15945.72 KBytes
  max/ min on nodes  :       1285.37        671.62

    ORTHCH:  cpu time      2.2542: real time      2.2655
     LOOP+:  cpu time    132.9402: real time    133.8420


--------------------------------------- Ionic step       16  -------------------------------------------




--------------------------------------- Iteration     16(   1)  ---------------------------------------


    POTLOK:  cpu time      0.0572: real time      0.0584
    SETDIJ:  cpu time      0.0061: real time      0.0061
     EDDAV:  cpu time     46.2529: real time     46.6165
       DOS:  cpu time      0.0172: real time      0.0173
    CHARGE:  cpu time      0.4161: real time      0.4175
    MIXING:  cpu time      0.0020: real time      0.0020
    --------------------------------------------
      LOOP:  cpu time     46.7515: real time     47.1179

 eigenvalue-minimisations  :  6440
 total energy-change (2. order) : 0.5306152E-05  (-0.1083756E-02)
 number of electron    1031.0001658 magnetization 
 augmentation part      248.2293662 magnetization 

  free energy =  -0.576311529388E+03  energy without entropy=  -0.576306105664E+03


--------------------------------------------------------------------------------------------------------




--------------------------------------- Iteration     16(   2)  ---------------------------------------


    POTLOK:  cpu time      0.0589: real time      0.0610
    SETDIJ:  cpu time      0.0057: real time      0.0057
    EDDIAG:  cpu time      5.0922: real time      5.1147
  RMM-DIIS:  cpu time     10.1131: real time     10.1911
    ORTHCH:  cpu time      1.4304: real time      1.4384
       DOS:  cpu time      0.0042: real time      0.0042
    CHARGE:  cpu time      0.4182: real time      0.4197
    MIXING:  cpu time      0.0020: real time      0.0020
    --------------------------------------------
      LOOP:  cpu time     17.1246: real time     17.2368

 eigenvalue-minimisations  :  6679
 total energy-change (2. order) :-0.1175943E-03  (-0.1171413E-03)
 number of electron    1031.0001658 magnetization 
 augmentation part      248.2294796 magnetization 

 eigenvalues of (default mixing * dielectric matrix)
  average eigenvalue GAMMA=   0.4375
  0.4375

  free energy =  -0.576311646983E+03  energy without entropy=  -0.576306232429E+03


--------------------------------------------------------------------------------------------------------




--------------------------------------- Iteration     16(   3)  ---------------------------------------


    POTLOK:  cpu time      0.0671: real time      0.0720
    SETDIJ:  cpu time      0.0055: real time      0.0056
    EDDIAG:  cpu time      5.1086: real time      5.1314
  RMM-DIIS:  cpu time      8.6117: real time      8.6788
    ORTHCH:  cpu time      1.4168: real time      1.4248
       DOS:  cpu time      0.0033: real time      0.0034
    CHARGE:  cpu time      0.4294: real time      0.4312
    MIXING:  cpu time      0.0022: real time      0.0022
    --------------------------------------------
      LOOP:  cpu time     15.6447: real time     15.7493

 eigenvalue-minimisations  :  5681
 total energy-change (2. order) :-0.1253851E-04  (-0.1942489E-04)
 number of electron    1031.0001658 magnetization 
 augmentation part      248.2292756 magnetization 

 eigenvalues of (default mixing * dielectric matrix)
  average eigenvalue GAMMA=   0.4894
  0.7885  0.1903

  free energy =  -0.576311659521E+03  energy without entropy=  -0.576306229849E+03


--------------------------------------------------------------------------------------------------------




--------------------------------------- Iteration     16(   4)  ---------------------------------------


    POTLOK:  cpu time      0.0589: real time      0.0599
    SETDIJ:  cpu time      0.0058: real time      0.0058
    EDDIAG:  cpu time      5.1676: real time      5.1912
  RMM-DIIS:  cpu time      8.2411: real time      8.3029
    ORTHCH:  cpu time      1.4196: real time      1.4287
       DOS:  cpu time      0.0039: real time      0.0039
    --------------------------------------------
      LOOP:  cpu time     14.8969: real time     14.9924

 eigenvalue-minimisations  :  5238
 total energy-change (2. order) :-0.5645736E-05  (-0.4157226E-05)
 number of electron    1031.0001658 magnetization 
 augmentation part      248.2292756 magnetization 

  free energy =  -0.576311665167E+03  energy without entropy=  -0.576306244409E+03


--------------------------------------------------------------------------------------------------------




------------------------ aborting loop because EDIFF is reached ----------------------------------------





 total charge

# of ion       s       p       d       tot
------------------------------------------
    1        2.212   6.044   5.303  13.558
    2        2.211   6.044   5.303  13.558
    3        2.211   6.044   5.304  13.559
    4        2.211   6.044   5.303  13.558
    5        2.212   6.044   5.303  13.558
    6        2.211   6.044   5.303  13.557
    7        2.211   6.044   5.303  13.558
    8        2.211   6.044   5.304  13.559
    9        2.212   6.044   5.302  13.558
   10        2.211   6.044   5.304  13.559
   11        2.211   6.044   5.302  13.557
   12        2.211   6.044   5.302  13.557
   13        2.211   6.044   5.302  13.557
   14        2.211   6.044   5.304  13.559
   15        2.212   6.044   5.302  13.557
   16        2.212   6.044   5.302  13.557
   17        2.218   6.102   5.274  13.594
   18        2.218   6.102   5.274  13.594
   19        2.218   6.102   5.272  13.592
   20        2.217   6.101   5.269  13.587
   21        2.218   6.102   5.273  13.593
   22        2.218   6.102   5.273  13.593
   23        2.218   6.102   5.272  13.592
   24        2.218   6.102   5.273  13.593
   25        2.218   6.102   5.272  13.592
   26        2.218   6.102   5.273  13.593
   27        2.218   6.101   5.272  13.592
   28        2.218   6.102   5.273  13.593
   29        2.218   6.102   5.273  13.593
   30        2.218   6.102   5.272  13.592
   31        2.218   6.102   5.272  13.592
   32        2.218   6.102   5.273  13.593
   33        2.222   6.110   5.283  13.615
   34        2.223   6.112   5.282  13.617
   35        2.222   6.110   5.283  13.615
   36        2.221   6.107   5.280  13.607
   37        2.222   6.110   5.283  13.615
   38        2.221   6.109   5.283  13.614
   39        2.221   6.107   5.280  13.607
   40        2.222   6.110   5.283  13.614
   41        2.222   6.110   5.282  13.614
   42        2.222   6.107   5.287  13.616
   43        2.222   6.110   5.282  13.615
   44        2.222   6.110   5.282  13.615
   45        2.219   6.106   5.270  13.595
   46        2.222   6.107   5.287  13.616
   47        2.223   6.110   5.282  13.615
   48        2.223   6.110   5.282  13.615
   49        2.218   6.053   5.317  13.588
   50        2.218   6.053   5.317  13.588
   51        2.217   6.049   5.320  13.585
   52        2.216   6.050   5.343  13.609
   53        2.219   6.054   5.315  13.588
   54        2.219   6.054   5.315  13.588
   55        2.217   6.049   5.319  13.585
   56        2.216   6.050   5.317  13.583
   57        2.216   6.049   5.316  13.582
   58        2.204   6.075   5.285  13.564
   59        2.217   6.050   5.317  13.584
   60        2.217   6.050   5.318  13.585
   61        2.204   6.075   5.285  13.564
   62        2.216   6.049   5.316  13.582
   63        2.216   6.048   5.345  13.609
   64        2.217   6.050   5.318  13.585
   65        1.216   2.632   0.000   3.848
   66        0.635   0.083   0.000   0.718
   67        0.636   0.083   0.000   0.718
--------------------------------------------------
tot        144.353 391.728 338.780 874.861
 
    CHARGE:  cpu time      0.4180: real time      0.4195
    FORLOC:  cpu time      0.0292: real time      0.0293
    FORNL :  cpu time      2.5002: real time      2.5116
    STRESS:  cpu time      7.5453: real time      7.5793
    FORCOR:  cpu time      0.0667: real time      0.0670
    FORHAR:  cpu time      0.0260: real time      0.0261
    MIXING:  cpu time      0.0021: real time      0.0021
    OFIELD:  cpu time      0.0000: real time      0.0000

  FORCE on cell =-STRESS in cart. coord.  units (eV):
  Direction    XX          YY          ZZ          XY          YZ          ZX
  --------------------------------------------------------------------------------------
  Alpha Z  3956.67891  3956.67891  3956.67891
  Ewald  323611.65586323563.26487************     0.19570     5.29459     0.02842
  Hartree367299.89089367251.18976************     0.08985     3.00107     0.02208
  E(xc)   -5604.12078 -5603.86602 -5615.64275     0.00022    -0.00762    -0.00009
  Local  ************************737816.23964    -0.28018    -7.16790    -0.06262
  n-local  2352.25721  2352.99492  2309.00346     0.00196    -0.05225     0.00185
  augment  5363.40966  5363.24725  5349.28422     0.00166    -0.30265     0.00110
  Kinetic 20412.80454 20400.53480 20412.71734    -0.00686    -0.89893     0.01750
  Fock        0.00000     0.00000     0.00000     0.00000     0.00000     0.00000
  -------------------------------------------------------------------------------------
  Total     -64.84567   -63.02354   -25.82587     0.00234    -0.13368     0.00824
  in kB     -57.81884   -56.19417   -23.02732     0.00208    -0.11920     0.00735
  external pressure =      -45.68 kB  Pullay stress =        0.00 kB



--------------------------------------------------------------------------------------------------------



  FREE ENERGIE OF THE ION-ELECTRON SYSTEM (eV)
  ---------------------------------------------------
  free  energy   TOTEN  =      -576.31166517 eV

  energy  without entropy=     -576.30624441  energy(sigma->0) =     -576.30895479
 
 d Force = 0.1218007E-03[ 0.104E-03, 0.139E-03]  d Energy = 0.1306033E-03-0.880E-05
 d Force = 0.2492907E+00[ 0.249E+00, 0.250E+00]  d Ewald  = 0.2492908E+00-0.112E-06


--------------------------------------------------------------------------------------------------------


    POTLOK:  cpu time      0.0596: real time      0.0599


--------------------------------------------------------------------------------------------------------


 Conjugate gradient step on ions:
 trial-energy change:   -0.000131  1 .order   -0.000122   -0.000139   -0.000104
  (g-gl).g = 0.161E-03      g.g   = 0.157E-03  gl.gl    = 0.215E-03
 g(Force)  = 0.157E-03   g(Stress)= 0.000E+00 ortho     =-0.333E-05
 gamma     =   0.74676
 trial     =   0.89996
 opt step  =   3.58617  (harmonic =   3.58617) maximal distance =0.00267626
 next E    =  -576.311812   (d E  =  -0.00028)


--------------------------------------------------------------------------------------------------------


    WAVPRE:  cpu time      0.0272: real time      0.1003
    FEWALD:  cpu time      0.0013: real time      0.0013

 real space projection operators:
  total allocation   :      15944.70 KBytes
  max/ min on nodes  :       1285.23        671.58

    ORTHCH:  cpu time      2.2408: real time      2.2521
     LOOP+:  cpu time    107.3584: real time    108.1736


--------------------------------------- Ionic step       17  -------------------------------------------




--------------------------------------- Iteration     17(   1)  ---------------------------------------


    POTLOK:  cpu time      0.0562: real time      0.0577
    SETDIJ:  cpu time      0.0058: real time      0.0058
     EDDAV:  cpu time     46.3044: real time     46.6735
       DOS:  cpu time      0.0189: real time      0.0189
    CHARGE:  cpu time      0.4174: real time      0.4189
    MIXING:  cpu time      0.0018: real time      0.0018
    --------------------------------------------
      LOOP:  cpu time     46.8045: real time     47.1768

 eigenvalue-minimisations  :  6444
 total energy-change (2. order) : 0.9184302E-03  (-0.9510609E-02)
 number of electron    1031.0001643 magnetization 
 augmentation part      248.2290623 magnetization 

  free energy =  -0.576310741091E+03  energy without entropy=  -0.576305357831E+03


--------------------------------------------------------------------------------------------------------




--------------------------------------- Iteration     17(   2)  ---------------------------------------


    POTLOK:  cpu time      0.0562: real time      0.0589
    SETDIJ:  cpu time      0.0056: real time      0.0056
    EDDIAG:  cpu time      5.0788: real time      5.1017
  RMM-DIIS:  cpu time     10.1858: real time     10.2637
    ORTHCH:  cpu time      1.4266: real time      1.4342
       DOS:  cpu time      0.0120: real time      0.0120
    CHARGE:  cpu time      0.4183: real time      0.4197
    MIXING:  cpu time      0.0020: real time      0.0020
    --------------------------------------------
      LOOP:  cpu time     17.1852: real time     17.2980

 eigenvalue-minimisations  :  6778
 total energy-change (2. order) :-0.9983669E-03  (-0.1016098E-02)
 number of electron    1031.0001643 magnetization 
 augmentation part      248.2290382 magnetization 

 eigenvalues of (default mixing * dielectric matrix)
  average eigenvalue GAMMA=   0.5452
  0.5452

  free energy =  -0.576311739458E+03  energy without entropy=  -0.576306336532E+03


--------------------------------------------------------------------------------------------------------




--------------------------------------- Iteration     17(   3)  ---------------------------------------


    POTLOK:  cpu time      0.0564: real time      0.0600
    SETDIJ:  cpu time      0.0055: real time      0.0055
    EDDIAG:  cpu time      5.0941: real time      5.1177
  RMM-DIIS:  cpu time      8.8668: real time      8.9358
    ORTHCH:  cpu time      1.4229: real time      1.4306
       DOS:  cpu time      0.0042: real time      0.0043
    CHARGE:  cpu time      0.4184: real time      0.4200
    MIXING:  cpu time      0.0021: real time      0.0021
    --------------------------------------------
      LOOP:  cpu time     15.8706: real time     15.9760

 eigenvalue-minimisations  :  5876
 total energy-change (2. order) :-0.2129735E-03  (-0.1688385E-03)
 number of electron    1031.0001643 magnetization 
 augmentation part      248.2290336 magnetization 

 eigenvalues of (default mixing * dielectric matrix)
  average eigenvalue GAMMA=   0.4527
  0.7846  0.1209

  free energy =  -0.576311952431E+03  energy without entropy=  -0.576306558020E+03


--------------------------------------------------------------------------------------------------------




--------------------------------------- Iteration     17(   4)  ---------------------------------------


    POTLOK:  cpu time      0.0573: real time      0.0600
    SETDIJ:  cpu time      0.0055: real time      0.0055
    EDDIAG:  cpu time      5.0883: real time      5.1119
  RMM-DIIS:  cpu time     11.0570: real time     11.1433
    ORTHCH:  cpu time      1.4285: real time      1.4367
       DOS:  cpu time      0.0107: real time      0.0108
    CHARGE:  cpu time      0.4294: real time      0.4310
    MIXING:  cpu time      0.0022: real time      0.0022
    --------------------------------------------
      LOOP:  cpu time     18.0789: real time     18.2013

 eigenvalue-minimisations  :  7243
 total energy-change (2. order) : 0.5179711E-04  (-0.3574434E-04)
 number of electron    1031.0001643 magnetization 
 augmentation part      248.2290963 magnetization 

 eigenvalues of (default mixing * dielectric matrix)
  average eigenvalue GAMMA=   0.3972
  0.8337  0.2596  0.0984

  free energy =  -0.576311900634E+03  energy without entropy=  -0.576306537418E+03


--------------------------------------------------------------------------------------------------------




--------------------------------------- Iteration     17(   5)  ---------------------------------------


    POTLOK:  cpu time      0.0579: real time      0.0587
    SETDIJ:  cpu time      0.0059: real time      0.0059
    EDDIAG:  cpu time      5.0857: real time      5.1115
  RMM-DIIS:  cpu time      8.7980: real time      8.8715
    ORTHCH:  cpu time      1.4187: real time      1.4275
       DOS:  cpu time      0.0060: real time      0.0061
    CHARGE:  cpu time      0.4182: real time      0.4198
    MIXING:  cpu time      0.0023: real time      0.0024
    --------------------------------------------
      LOOP:  cpu time     15.7928: real time     15.9035

 eigenvalue-minimisations  :  5661
 total energy-change (2. order) : 0.3015099E-04  (-0.6053119E-05)
 number of electron    1031.0001643 magnetization 
 augmentation part      248.2291261 magnetization 

 eigenvalues of (default mixing * dielectric matrix)
  average eigenvalue GAMMA=   0.5174
  0.8876  0.8876  0.1974  0.0969

  free energy =  -0.576311870483E+03  energy without entropy=  -0.576306474640E+03


--------------------------------------------------------------------------------------------------------




--------------------------------------- Iteration     17(   6)  ---------------------------------------


    POTLOK:  cpu time      0.0568: real time      0.0603
    SETDIJ:  cpu time      0.0055: real time      0.0055
    EDDIAG:  cpu time      5.1490: real time      5.1722
  RMM-DIIS:  cpu time      6.3525: real time      6.3989
    ORTHCH:  cpu time      1.4365: real time      1.4444
       DOS:  cpu time      0.0037: real time      0.0037
    --------------------------------------------
      LOOP:  cpu time     13.0039: real time     13.0850

 eigenvalue-minimisations  :  4026
 total energy-change (2. order) : 0.1223816E-06  (-0.2486887E-05)
 number of electron    1031.0001643 magnetization 
 augmentation part      248.2291261 magnetization 

  free energy =  -0.576311870361E+03  energy without entropy=  -0.576306474121E+03


--------------------------------------------------------------------------------------------------------




------------------------ aborting loop because EDIFF is reached ----------------------------------------





 total charge

# of ion       s       p       d       tot
------------------------------------------
    1        2.212   6.044   5.304  13.559
    2        2.211   6.044   5.305  13.560
    3        2.211   6.044   5.304  13.559
    4        2.211   6.044   5.303  13.558
    5        2.212   6.044   5.304  13.559
    6        2.211   6.044   5.304  13.558
    7        2.211   6.044   5.303  13.558
    8        2.211   6.044   5.304  13.559
    9        2.212   6.044   5.303  13.559
   10        2.211   6.044   5.304  13.559
   11        2.211   6.044   5.303  13.558
   12        2.211   6.044   5.303  13.559
   13        2.211   6.044   5.302  13.557
   14        2.211   6.044   5.304  13.559
   15        2.212   6.044   5.302  13.558
   16        2.212   6.044   5.302  13.557
   17        2.218   6.102   5.274  13.594
   18        2.218   6.102   5.274  13.595
   19        2.218   6.102   5.273  13.593
   20        2.217   6.101   5.270  13.589
   21        2.218   6.102   5.273  13.593
   22        2.218   6.102   5.273  13.593
   23        2.218   6.102   5.273  13.593
   24        2.218   6.102   5.273  13.593
   25        2.218   6.102   5.272  13.593
   26        2.218   6.102   5.273  13.593
   27        2.218   6.101   5.273  13.592
   28        2.218   6.102   5.273  13.593
   29        2.218   6.102   5.273  13.593
   30        2.218   6.102   5.272  13.593
   31        2.218   6.102   5.272  13.592
   32        2.218   6.102   5.273  13.593
   33        2.222   6.110   5.283  13.615
   34        2.223   6.112   5.282  13.617
   35        2.222   6.110   5.282  13.614
   36        2.221   6.107   5.280  13.607
   37        2.222   6.110   5.283  13.615
   38        2.221   6.109   5.284  13.614
   39        2.221   6.107   5.280  13.607
   40        2.222   6.110   5.282  13.614
   41        2.222   6.110   5.282  13.614
   42        2.222   6.107   5.288  13.616
   43        2.222   6.110   5.282  13.614
   44        2.222   6.110   5.282  13.614
   45        2.219   6.106   5.270  13.595
   46        2.222   6.107   5.288  13.616
   47        2.223   6.110   5.282  13.615
   48        2.223   6.110   5.282  13.615
   49        2.218   6.053   5.316  13.587
   50        2.218   6.053   5.315  13.587
   51        2.217   6.049   5.318  13.584
   52        2.216   6.050   5.342  13.608
   53        2.219   6.054   5.314  13.587
   54        2.219   6.054   5.314  13.587
   55        2.217   6.049   5.318  13.584
   56        2.216   6.050   5.315  13.582
   57        2.216   6.049   5.316  13.582
   58        2.204   6.075   5.284  13.564
   59        2.216   6.050   5.316  13.583
   60        2.217   6.050   5.317  13.584
   61        2.204   6.075   5.284  13.564
   62        2.216   6.049   5.316  13.582
   63        2.216   6.048   5.345  13.609
   64        2.217   6.050   5.317  13.584
   65        1.216   2.631   0.000   3.847
   66        0.634   0.083   0.000   0.717
   67        0.635   0.083   0.000   0.718
--------------------------------------------------
tot        144.351 391.726 338.780 874.857
 
    CHARGE:  cpu time      0.4172: real time      0.4187
    FORLOC:  cpu time      0.0150: real time      0.0150
    FORNL :  cpu time      2.5384: real time      2.5493
    STRESS:  cpu time      7.5832: real time      7.6155
    FORCOR:  cpu time      0.0774: real time      0.0777
    FORHAR:  cpu time      0.0260: real time      0.0261
    MIXING:  cpu time      0.0023: real time      0.0024
    OFIELD:  cpu time      0.0000: real time      0.0000

  FORCE on cell =-STRESS in cart. coord.  units (eV):
  Direction    XX          YY          ZZ          XY          YZ          ZX
  --------------------------------------------------------------------------------------
  Alpha Z  3956.67891  3956.67891  3956.67891
  Ewald  323610.32923323561.75653************     0.21744     5.60137     0.01464
  Hartree367300.19005367251.55363************     0.10714     3.20865     0.02043
  E(xc)   -5604.11320 -5603.85896 -5615.63352     0.00022    -0.00723    -0.00015
  Local  ************************737814.00391    -0.32168    -7.71147    -0.05148
  n-local  2352.25617  2353.00270  2308.99315     0.00093    -0.04138     0.00140
  augment  5363.41419  5363.23917  5349.29562     0.00190    -0.29866     0.00182
  Kinetic 20412.80579 20400.50927 20412.63738    -0.00497    -0.88250     0.02012
  Fock        0.00000     0.00000     0.00000     0.00000     0.00000     0.00000
  -------------------------------------------------------------------------------------
  Total     -64.83894   -63.07960   -25.86267     0.00098    -0.13122     0.00678
  in kB     -57.81284   -56.24415   -23.06014     0.00088    -0.11700     0.00604
  external pressure =      -45.71 kB  Pullay stress =        0.00 kB



--------------------------------------------------------------------------------------------------------



  FREE ENERGIE OF THE ION-ELECTRON SYSTEM (eV)
  ---------------------------------------------------
  free  energy   TOTEN  =      -576.31187036 eV

  energy  without entropy=     -576.30647412  energy(sigma->0) =     -576.30917224
 
 d Force = 0.2010550E-03[ 0.907E-04, 0.311E-03]  d Energy = 0.2051941E-03-0.414E-05
 d Force = 0.7367097E+00[ 0.731E+00, 0.742E+00]  d Ewald  = 0.7367087E+00 0.108E-05


--------------------------------------------------------------------------------------------------------


    POTLOK:  cpu time      0.0600: real time      0.0604


--------------------------------------------------------------------------------------------------------




--------------------------------------------------------------------------------------------------------


    WAVPRE:  cpu time      0.0263: real time      0.0282
    FEWALD:  cpu time      0.0013: real time      0.0013

 real space projection operators:
  total allocation   :      15944.71 KBytes
  max/ min on nodes  :       1285.09        671.72

    ORTHCH:  cpu time      2.2442: real time      2.2558
     LOOP+:  cpu time    139.7442: real time    140.7137


--------------------------------------- Ionic step       18  -------------------------------------------




--------------------------------------- Iteration     18(   1)  ---------------------------------------


    POTLOK:  cpu time      0.0551: real time      0.0566
    SETDIJ:  cpu time      0.0187: real time      0.0188
     EDDAV:  cpu time     46.2212: real time     46.5824
       DOS:  cpu time      0.0236: real time      0.0237
    CHARGE:  cpu time      0.4300: real time      0.4315
    MIXING:  cpu time      0.0020: real time      0.0020
    --------------------------------------------
      LOOP:  cpu time     46.7507: real time     47.1149

 eigenvalue-minimisations  :  6440
 total energy-change (2. order) : 0.1692358E-03  (-0.1563459E-02)
 number of electron    1031.0001637 magnetization 
 augmentation part      248.2290576 magnetization 

  free energy =  -0.576311701247E+03  energy without entropy=  -0.576306327673E+03


--------------------------------------------------------------------------------------------------------




--------------------------------------- Iteration     18(   2)  ---------------------------------------


    POTLOK:  cpu time      0.0723: real time      0.0735
    SETDIJ:  cpu time      0.0060: real time      0.0060
    EDDIAG:  cpu time      5.0903: real time      5.1134
  RMM-DIIS:  cpu time     10.1387: real time     10.2172
    ORTHCH:  cpu time      1.4317: real time      1.4394
       DOS:  cpu time      0.0041: real time      0.0041
    CHARGE:  cpu time      0.4170: real time      0.4186
    MIXING:  cpu time      0.0021: real time      0.0021
    --------------------------------------------
      LOOP:  cpu time     17.1622: real time     17.2743

 eigenvalue-minimisations  :  6712
 total energy-change (2. order) :-0.1797382E-03  (-0.1686087E-03)
 number of electron    1031.0001637 magnetization 
 augmentation part      248.2290403 magnetization 

 eigenvalues of (default mixing * dielectric matrix)
  average eigenvalue GAMMA=   0.3320
  0.3320

  free energy =  -0.576311880986E+03  energy without entropy=  -0.576306482814E+03


--------------------------------------------------------------------------------------------------------




--------------------------------------- Iteration     18(   3)  ---------------------------------------


    POTLOK:  cpu time      0.0552: real time      0.0600
    SETDIJ:  cpu time      0.0054: real time      0.0054
    EDDIAG:  cpu time      5.1019: real time      5.1264
  RMM-DIIS:  cpu time      8.6992: real time      8.7661
    ORTHCH:  cpu time      1.4298: real time      1.4377
       DOS:  cpu time      0.0032: real time      0.0032
    CHARGE:  cpu time      0.4390: real time      0.4406
    MIXING:  cpu time      0.0022: real time      0.0022
    --------------------------------------------
      LOOP:  cpu time     15.7359: real time     15.8415

 eigenvalue-minimisations  :  5777
 total energy-change (2. order) :-0.4768750E-05  (-0.2835752E-04)
 number of electron    1031.0001637 magnetization 
 augmentation part      248.2290548 magnetization 

 eigenvalues of (default mixing * dielectric matrix)
  average eigenvalue GAMMA=   0.4275
  0.6719  0.1830

  free energy =  -0.576311885754E+03  energy without entropy=  -0.576306507358E+03


--------------------------------------------------------------------------------------------------------




--------------------------------------- Iteration     18(   4)  ---------------------------------------


    POTLOK:  cpu time      0.0597: real time      0.0615
    SETDIJ:  cpu time      0.0058: real time      0.0059
    EDDIAG:  cpu time      5.0994: real time      5.1228
  RMM-DIIS:  cpu time      8.9311: real time      8.9991
    ORTHCH:  cpu time      1.4219: real time      1.4296
       DOS:  cpu time      0.0038: real time      0.0038
    CHARGE:  cpu time      0.4213: real time      0.4228
    MIXING:  cpu time      0.0022: real time      0.0022
    --------------------------------------------
      LOOP:  cpu time     15.9452: real time     16.0476

 eigenvalue-minimisations  :  5761
 total energy-change (2. order) :-0.1070037E-04  (-0.6507328E-05)
 number of electron    1031.0001637 magnetization 
 augmentation part      248.2290678 magnetization 

 eigenvalues of (default mixing * dielectric matrix)
  average eigenvalue GAMMA=   0.3744
  0.8059  0.2113  0.1059

  free energy =  -0.576311896455E+03  energy without entropy=  -0.576306528673E+03


--------------------------------------------------------------------------------------------------------




--------------------------------------- Iteration     18(   5)  ---------------------------------------


    POTLOK:  cpu time      0.0614: real time      0.0621
    SETDIJ:  cpu time      0.0056: real time      0.0057
    EDDIAG:  cpu time      5.1005: real time      5.1239
  RMM-DIIS:  cpu time      5.6566: real time      5.6982
    ORTHCH:  cpu time      1.4237: real time      1.4315
       DOS:  cpu time      0.0032: real time      0.0032
    CHARGE:  cpu time      0.4310: real time      0.4325
    MIXING:  cpu time      0.0024: real time      0.0024
    --------------------------------------------
      LOOP:  cpu time     12.6844: real time     12.7595

 eigenvalue-minimisations  :  3595
 total energy-change (2. order) : 0.1183429E-04  (-0.9590676E-06)
 number of electron    1031.0001637 magnetization 
 augmentation part      248.2290487 magnetization 

 eigenvalues of (default mixing * dielectric matrix)
  average eigenvalue GAMMA=   0.4399
  0.7278  0.7278  0.2053  0.0986

  free energy =  -0.576311884621E+03  energy without entropy=  -0.576306505602E+03


--------------------------------------------------------------------------------------------------------




--------------------------------------- Iteration     18(   6)  ---------------------------------------


    POTLOK:  cpu time      0.0605: real time      0.0624
    SETDIJ:  cpu time      0.0058: real time      0.0059
    EDDIAG:  cpu time      5.1120: real time      5.1349
  RMM-DIIS:  cpu time      5.5786: real time      5.6208
    ORTHCH:  cpu time      1.4145: real time      1.4243
       DOS:  cpu time      0.0056: real time      0.0056
    --------------------------------------------
      LOOP:  cpu time     12.1771: real time     12.2539

 eigenvalue-minimisations  :  3471
 total energy-change (2. order) :-0.2870802E-06  (-0.4989213E-06)
 number of electron    1031.0001637 magnetization 
 augmentation part      248.2290487 magnetization 

  free energy =  -0.576311884908E+03  energy without entropy=  -0.576306501113E+03


--------------------------------------------------------------------------------------------------------




------------------------ aborting loop because EDIFF is reached ----------------------------------------





 total charge

# of ion       s       p       d       tot
------------------------------------------
    1        2.212   6.044   5.303  13.558
    2        2.211   6.044   5.303  13.558
    3        2.211   6.044   5.304  13.559
    4        2.211   6.044   5.303  13.558
    5        2.212   6.044   5.303  13.558
    6        2.211   6.044   5.303  13.558
    7        2.211   6.044   5.303  13.558
    8        2.211   6.044   5.304  13.559
    9        2.212   6.044   5.303  13.559
   10        2.211   6.044   5.305  13.559
   11        2.211   6.044   5.303  13.558
   12        2.211   6.044   5.303  13.558
   13        2.211   6.044   5.303  13.558
   14        2.211   6.044   5.305  13.559
   15        2.212   6.044   5.302  13.558
   16        2.212   6.044   5.303  13.558
   17        2.218   6.102   5.274  13.595
   18        2.218   6.102   5.274  13.595
   19        2.218   6.102   5.273  13.593
   20        2.217   6.101   5.269  13.588
   21        2.218   6.102   5.273  13.593
   22        2.218   6.102   5.274  13.593
   23        2.218   6.102   5.273  13.593
   24        2.218   6.102   5.273  13.593
   25        2.218   6.102   5.273  13.593
   26        2.218   6.102   5.273  13.593
   27        2.218   6.101   5.273  13.592
   28        2.218   6.102   5.273  13.593
   29        2.218   6.102   5.273  13.593
   30        2.218   6.102   5.273  13.593
   31        2.218   6.102   5.272  13.592
   32        2.218   6.102   5.273  13.593
   33        2.222   6.110   5.283  13.615
   34        2.223   6.112   5.282  13.617
   35        2.222   6.110   5.282  13.614
   36        2.221   6.107   5.279  13.607
   37        2.222   6.110   5.283  13.615
   38        2.221   6.109   5.283  13.613
   39        2.221   6.107   5.279  13.607
   40        2.222   6.110   5.282  13.614
   41        2.222   6.110   5.282  13.614
   42        2.222   6.107   5.287  13.616
   43        2.222   6.110   5.282  13.614
   44        2.222   6.110   5.282  13.614
   45        2.219   6.106   5.270  13.595
   46        2.222   6.107   5.287  13.616
   47        2.223   6.110   5.282  13.614
   48        2.223   6.110   5.282  13.614
   49        2.218   6.053   5.316  13.587
   50        2.218   6.053   5.316  13.587
   51        2.217   6.049   5.319  13.584
   52        2.216   6.050   5.342  13.608
   53        2.219   6.054   5.314  13.587
   54        2.219   6.054   5.314  13.587
   55        2.217   6.049   5.319  13.584
   56        2.216   6.050   5.316  13.582
   57        2.216   6.049   5.316  13.582
   58        2.204   6.075   5.284  13.564
   59        2.216   6.050   5.317  13.583
   60        2.217   6.050   5.317  13.584
   61        2.204   6.075   5.284  13.564
   62        2.216   6.049   5.316  13.582
   63        2.216   6.048   5.345  13.608
   64        2.217   6.050   5.317  13.584
   65        1.216   2.631   0.000   3.847
   66        0.634   0.082   0.000   0.716
   67        0.635   0.082   0.000   0.717
--------------------------------------------------
tot        144.350 391.726 338.779 874.855
 
    CHARGE:  cpu time      0.4256: real time      0.4272
    FORLOC:  cpu time      0.0153: real time      0.0153
    FORNL :  cpu time      2.4829: real time      2.4939
    STRESS:  cpu time      7.5560: real time      7.6133
    FORCOR:  cpu time      0.0730: real time      0.0734
    FORHAR:  cpu time      0.0289: real time      0.0291
    MIXING:  cpu time      0.0041: real time      0.0042
    OFIELD:  cpu time      0.0001: real time      0.0001

  FORCE on cell =-STRESS in cart. coord.  units (eV):
  Direction    XX          YY          ZZ          XY          YZ          ZX
  --------------------------------------------------------------------------------------
  Alpha Z  3956.67891  3956.67891  3956.67891
  Ewald  323609.78584323561.13628************     0.22645     5.72684     0.00903
  Hartree367299.44773367250.80858************     0.10911     3.32664     0.02209
  E(xc)   -5604.11050 -5603.85644 -5615.63041     0.00023    -0.00704    -0.00017
  Local  ************************737812.20958    -0.32879    -7.96462    -0.04435
  n-local  2352.25862  2353.01292  2308.99436     0.00092    -0.03876     0.00304
  augment  5363.41332  5363.23395  5349.29928     0.00130    -0.29825     0.00129
  Kinetic 20412.79868 20400.49655 20412.61061    -0.00774    -0.87968     0.01789
  Fock        0.00000     0.00000     0.00000     0.00000     0.00000     0.00000
  -------------------------------------------------------------------------------------
  Total     -64.83913   -63.09605   -25.88385     0.00146    -0.13486     0.00882
  in kB     -57.81302   -56.25881   -23.07901     0.00131    -0.12025     0.00786
  external pressure =      -45.72 kB  Pullay stress =        0.00 kB



--------------------------------------------------------------------------------------------------------



  FREE ENERGIE OF THE ION-ELECTRON SYSTEM (eV)
  ---------------------------------------------------
  free  energy   TOTEN  =      -576.31188491 eV

  energy  without entropy=     -576.30650111  energy(sigma->0) =     -576.30919301
 
 d Force = 0.1811705E-04[-0.106E-05, 0.373E-04]  d Energy = 0.1454671E-04 0.357E-05
 d Force = 0.2996666E+00[ 0.299E+00, 0.301E+00]  d Ewald  = 0.2996667E+00-0.998E-07


--------------------------------------------------------------------------------------------------------


    POTLOK:  cpu time      0.0704: real time      0.0709


--------------------------------------------------------------------------------------------------------




--------------------------------------------------------------------------------------------------------


  
 reached required accuracy - stopping structural energy minimisation
     LOOP+:  cpu time    131.1350: real time    132.0466
    4ORBIT:  cpu time      0.0000: real time      0.0000



 total charge

# of ion       s       p       d       tot
------------------------------------------
    1        2.212   6.044   5.303  13.558
    2        2.211   6.044   5.303  13.558
    3        2.211   6.044   5.304  13.559
    4        2.211   6.044   5.303  13.558
    5        2.212   6.044   5.303  13.558
    6        2.211   6.044   5.303  13.558
    7        2.211   6.044   5.303  13.558
    8        2.211   6.044   5.304  13.559
    9        2.212   6.044   5.303  13.559
   10        2.211   6.044   5.305  13.559
   11        2.211   6.044   5.303  13.558
   12        2.211   6.044   5.303  13.558
   13        2.211   6.044   5.303  13.558
   14        2.211   6.044   5.305  13.559
   15        2.212   6.044   5.302  13.558
   16        2.212   6.044   5.303  13.558
   17        2.218   6.102   5.274  13.595
   18        2.218   6.102   5.274  13.595
   19        2.218   6.102   5.273  13.593
   20        2.217   6.101   5.269  13.588
   21        2.218   6.102   5.273  13.593
   22        2.218   6.102   5.274  13.593
   23        2.218   6.102   5.273  13.593
   24        2.218   6.102   5.273  13.593
   25        2.218   6.102   5.273  13.593
   26        2.218   6.102   5.273  13.593
   27        2.218   6.101   5.273  13.592
   28        2.218   6.102   5.273  13.593
   29        2.218   6.102   5.273  13.593
   30        2.218   6.102   5.273  13.593
   31        2.218   6.102   5.272  13.592
   32        2.218   6.102   5.273  13.593
   33        2.222   6.110   5.283  13.615
   34        2.223   6.112   5.282  13.617
   35        2.222   6.110   5.282  13.614
   36        2.221   6.107   5.279  13.607
   37        2.222   6.110   5.283  13.615
   38        2.221   6.109   5.283  13.613
   39        2.221   6.107   5.279  13.607
   40        2.222   6.110   5.282  13.614
   41        2.222   6.110   5.282  13.614
   42        2.222   6.107   5.287  13.616
   43        2.222   6.110   5.282  13.614
   44        2.222   6.110   5.282  13.614
   45        2.219   6.106   5.270  13.595
   46        2.222   6.107   5.287  13.616
   47        2.223   6.110   5.282  13.614
   48        2.223   6.110   5.282  13.614
   49        2.218   6.053   5.316  13.587
   50        2.218   6.053   5.316  13.587
   51        2.217   6.049   5.319  13.584
   52        2.216   6.050   5.342  13.608
   53        2.219   6.054   5.314  13.587
   54        2.219   6.054   5.314  13.587
   55        2.217   6.049   5.319  13.584
   56        2.216   6.050   5.316  13.582
   57        2.216   6.049   5.316  13.582
   58        2.204   6.075   5.284  13.564
   59        2.216   6.050   5.317  13.583
   60        2.217   6.050   5.317  13.584
   61        2.204   6.075   5.284  13.564
   62        2.216   6.049   5.316  13.582
   63        2.216   6.048   5.345  13.608
   64        2.217   6.050   5.317  13.584
   65        1.216   2.631   0.000   3.847
   66        0.634   0.082   0.000   0.716
   67        0.635   0.082   0.000   0.717
--------------------------------------------------
tot        144.350 391.726 338.779 874.855
 

 total amount of memory used by VASP MPI-rank0   116820. kBytes
=======================================================================

   base      :      30000. kBytes
   nonlr-proj:       3220. kBytes
   fftplans  :       3780. kBytes
   grid      :       6869. kBytes
   one-center:         77. kBytes
   wavefun   :      72874. kBytes
 
  
  
 General timing and accounting informations for this job:
 ========================================================
  
                  Total CPU time used (sec):     3781.652
                            User time (sec):     3774.708
                          System time (sec):        6.944
                         Elapsed time (sec):     3903.636
  
                   Maximum memory used (kb):      437636.
                   Average memory used (kb):          N/A
  
                          Minor page faults:       761351
                          Major page faults:          118
                 Voluntary context switches:        35286
