Ru N  H 
 1.0000000000000000
    20.0000000000000000    0.0000000000000000    0.0000000000000000
     0.0000000000000000   20.0000000000000000    0.0000000000000000
     0.0000000000000000    0.0000000000000000   20.0000000000000000
 Ru  N   H  
  45   1   1
Cartesian
  7.6811427534289409  8.6526964423720507  6.6445385873172382
 10.0531984415757627 12.2985377685235058  7.8007313900913333
 14.0996349602152371 11.0940824240696116  6.5146780775380506
  8.4325406309203892 15.3026900119357130  5.0637146913883164
  7.8022717321610990 10.7503935946440503  2.5836129797913583
 11.7456226725100681  8.2848756031736883  6.6705737684506392
 13.8715209143770029  8.7881395397801434  5.2887385632910817
 12.2246429060804456 14.9593141971027865  5.0856338250821178
  9.6019828313280158  7.3295543938550969  7.8184780147717632
 10.2555654174623427 14.4280818776558117  6.5147509993597996
 12.2671146014194612 12.7345750815507142  3.8935612411578213
  7.8688337418120033  8.7273166674671252  9.0930042582392776
  9.8749718944806979  9.9173103652563785  1.2472047211948496
 10.0701843332363268 12.2869759730615300  5.1179858022651281
 11.8349957896582154  8.2255884170802887  3.9001165546340766
 12.0129712865846372 10.5092256873484047  7.8078451372651312
 14.4021626167939498 13.1427697102069807  5.1714072616610292
 10.0746617683037627 12.1254671300532753  2.4829410710452926
  5.6989252831762887  9.5289631081656143  5.2374167242835892
  8.0223382077051326 13.1871574520067210  6.3614670467736918
  5.8568320603533506 11.8013185568842047  3.8237530494246585
  9.8552430624949601  9.8177641151884281  3.8133822546317764
 11.9640312249576333 10.4811958433681198  5.1800889568038162
  7.8799628116598601 10.8528130887680003  5.1547898376702896
 10.2656803875707254 14.3453897555189442  3.6390557883196846
  9.6480361178349057  7.6271481246446449  5.2325838142937293
 12.2297064714143779 12.8077937210818185  6.3875292356542186
 14.1428502307939556 11.0490704156806423  3.8780297156334265
  7.8255345857830827  8.5106348462332999  1.3676594416429744
  8.0041647461248502 13.1190793357232707  3.8682841121330966
  9.8496703601657920  9.9549450620869901  6.5734795801325170
  7.6199784681285987  8.6089669310091352  3.8764967778199022
  5.9626701954434029 13.9083375432664269  5.1181103675945625
  9.8510260242291388 10.1572751429394650  9.1284682010798335
  7.8089991382002300 10.8901515040750674  7.7823778727703115
 12.0550931711467424 10.3663567409683761  2.6096855670588752
 11.5415895111979623  8.3961163360152256  9.1170196664711192
 13.9433551761320196  8.9297517038497887  7.7601089932470346
  5.6234008911794584  9.6882222277388461  7.7075908752514728
  5.8744446310082674 11.8397192224661190  6.4633784578395295
  9.6498181630749080  7.4976611281826910  2.7243578249093456
  5.5978373832060537  9.5559098678833010  2.7497933580815399
 14.0074623635374529  8.7931425832024388  2.8019289772209461
 11.6399032087357952  8.1661909629568274  1.3895149826657802
  9.6739409396180420  7.5779991432664708  0.0999999999999997
  9.4436797690915242  5.6258941411260732  8.0300929127593470
  9.3485290279023729  4.6973099880642870  7.6041418146287620
