Ru N  H 
 1.0000000000000000
    20.0000000000000000    0.0000000000000000    0.0000000000000000
     0.0000000000000000   20.0000000000000000    0.0000000000000000
     0.0000000000000000    0.0000000000000000   20.0000000000000000
 Ru  N   H  
  45   1   1
Cartesian
  7.7641091066018024  8.0523260124096510 11.5657415112294171
 10.1361647947486251 11.6981673385611042 12.7219343140035122
 14.1826013133880977 10.4937119941072101 11.4358810014502303
  8.5155069840932498 14.7023195819733132  9.9849176153004962
  7.8852380853339596 10.1500231646816488  7.5048159037035376
 11.8285890256829269  7.6845051732112895 11.5917766923628189
 13.9544872675498635  8.1877691098177436 10.2099414872032614
 12.3076092592533044 14.3589437671403850 10.0068367489942975
  9.6849491845008764  6.7291839638926962 12.7396809386839429
 10.3385317706352033 13.8277114476934102 11.4359539232719793
 12.3500809545923218 12.1342046515883126  8.8147641650700006
  7.9518000949848648  8.1269462375047237 14.0142071821514573
  9.9579382476535585  9.3169399352939788  6.1684076451070293
 10.1531506864091892 11.6866055430991285 10.0391887261773078
 11.9179621428310778  7.6252179871178898  8.8213194785462559
 12.0959376397574996  9.9088552573860049 12.7290480611773109
 14.4851289699668087 12.5423992802445810 10.0926101855732089
 10.1576281214766251 11.5250967000908755  7.4041439949574723
  5.7818916363491493  8.9285926782032146 10.1586196481957689
  8.1053045608779932 12.5867870220443212 11.2826699706858715
  5.9397984135262121 11.2009481269218032  8.7449559733368378
  9.9382094156678225  9.2173936852260283  8.7345851785439557
 12.0469975781304939  9.8808254134057201 10.1012918807159959
  7.9629291648327207 10.2524426588056006 10.0759927615824694
 10.3486467407435878 13.7450193255565445  8.5602587122318639
  9.7310024710077663  7.0267776946822451 10.1537867382059090
 12.3126728245872386 12.2074232911194187 11.3087321595663983
 14.2258165839668145 10.4486999857182408  8.7992326395456057
  7.9085009389559442  7.9102644162709002  6.2888623655551541
  8.0871310992977126 12.5187089057608709  8.7894870360452764
  9.9326367133386544  9.3545746321245904 11.4946825040446967
  7.7029448213014593  8.0085965010467355  8.7976997017320819
  6.0456365486162635 13.3079671133040272 10.0393132915067422
  9.9339923774020011  9.5569047129770652 14.0496711249920132
  7.8919654913730906 10.2897810741126676 12.7035807966824912
 12.1380595243196012  9.7659863110059764  7.5308884909710549
 11.6245558643708247  7.7957459060528249 14.0382225903832989
 14.0263215293048802  8.3293812738873889 12.6813119171592135
  5.7063672443523199  9.0878517977764464 12.6287937991636525
  5.9574109841811289 11.2393487925037174 11.3845813817517083
  9.7327845162477686  6.8972906982202913  7.6455607488215254
  5.6808037363789143  8.9555394379209012  7.6709962819937196
 14.0904287167103153  8.1927721532400373  7.7231319011331259
 11.7228695619086576  7.5658205329944277  6.3107179065779597
  9.7569072927909044  6.9776287133040702  5.0212029239121794
  9.5266461222643848  5.0255237111636735 12.9512958366715267
  9.4314953810752336  4.0969395581018873 12.5253447385409409
