Ru N  H 
 1.0000000000000000
    20.0000000000000000    0.0000000000000000    0.0000000000000000
     0.0000000000000000   20.0000000000000000    0.0000000000000000
     0.0000000000000000    0.0000000000000000   20.0000000000000000
 Ru  N   H  
  45   1   1
Cartesian
  7.7641091066018024  8.0523260124096510  6.6445385873172373
 10.1361647947486251 11.6981673385611042  7.8007313900913324
 14.1826013133880977 10.4937119941072101  6.5146780775380506
  8.5155069840932498 14.7023195819733132  5.0637146913883164
  7.8852380853339596 10.1500231646816488  2.5836129797913578
 11.8285890256829269  7.6845051732112895  6.6705737684506392
 13.9544872675498635  8.1877691098177436  5.2887385632910817
 12.3076092592533044 14.3589437671403850  5.0856338250821178
  9.6849491845008764  6.7291839638926962  7.8184780147717632
 10.3385317706352033 13.8277114476934102  6.5147509993597996
 12.3500809545923218 12.1342046515883126  3.8935612411578209
  7.9518000949848648  8.1269462375047237  9.0930042582392776
  9.9579382476535585  9.3169399352939788  1.2472047211948496
 10.1531506864091892 11.6866055430991285  5.1179858022651281
 11.9179621428310778  7.6252179871178898  3.9001165546340761
 12.0959376397574996  9.9088552573860049  7.8078451372651312
 14.4851289699668087 12.5423992802445810  5.1714072616610292
 10.1576281214766251 11.5250967000908755  2.4829410710452926
  5.7818916363491493  8.9285926782032146  5.2374167242835892
  8.1053045608779932 12.5867870220443212  6.3614670467736918
  5.9397984135262121 11.2009481269218032  3.8237530494246581
  9.9382094156678225  9.2173936852260283  3.8133822546317759
 12.0469975781304939  9.8808254134057201  5.1800889568038162
  7.9629291648327207 10.2524426588056006  5.1547898376702896
 10.3486467407435878 13.7450193255565445  3.6390557883196841
  9.7310024710077663  7.0267776946822451  5.2325838142937293
 12.3126728245872386 12.2074232911194187  6.3875292356542186
 14.2258165839668145 10.4486999857182408  3.8780297156334260
  7.9085009389559442  7.9102644162709002  1.3676594416429744
  8.0871310992977126 12.5187089057608709  3.8682841121330966
  9.9326367133386544  9.3545746321245904  6.5734795801325170
  7.7029448213014593  8.0085965010467355  3.8764967778199022
  6.0456365486162635 13.3079671133040272  5.1181103675945625
  9.9339923774020011  9.5569047129770652  9.1284682010798335
  7.8919654913730906 10.2897810741126676  7.7823778727703115
 12.1380595243196012  9.7659863110059764  2.6096855670588752
 11.6245558643708247  7.7957459060528249  9.1170196664711192
 14.0263215293048802  8.3293812738873889  7.7601089932470337
  5.7063672443523199  9.0878517977764464  7.7075908752514728
  5.9574109841811289 11.2393487925037174  6.4633784578395286
  9.7327845162477686  6.8972906982202913  2.7243578249093456
  5.6808037363789143  8.9555394379209012  2.7497933580815399
 14.0904287167103153  8.1927721532400373  2.8019289772209461
 11.7228695619086576  7.5658205329944277  1.3895149826657800
  9.7569072927909044  6.9776287133040702  0.0999999999999996
  9.5266461222643848  5.0255237111636735  8.0300929127593470
  9.4314953810752336  4.0969395581018873  7.6041418146287612
