Ru(001)                                 
   1.00000000000000     
    10.9034004211000006    0.0000000000000000    0.0000000000000000
    -5.4517002106000003    9.4426217522999991    0.0000000000000000
     0.0000000000000000    0.0000000000000000   17.4528999328999994
   Ru
    64
Selective dynamics
Direct
  0.0833300030000004  0.1666699989999998  0.0000000000000000   F   F   F
  0.3333299920000030  0.1666699989999998  0.0000000000000000   F   F   F
  0.0833299980000035  0.4166700099999971  0.0000000000000000   F   F   F
  0.3333299980000035  0.4166700099999971  0.0000000000000000   F   F   F
  0.5833300139999977  0.1666699989999998  0.0000000000000000   F   F   F
  0.8333299259999976  0.1666699989999998  0.0000000000000000   F   F   F
  0.5833299760000017  0.4166700099999971  0.0000000000000000   F   F   F
  0.8333299760000017  0.4166700099999971  0.0000000000000000   F   F   F
  0.0833300159999979  0.6666700469999967  0.0000000000000000   F   F   F
  0.3333300159999979  0.6666700469999967  0.0000000000000000   F   F   F
  0.0833299869999991  0.9166700330000026  0.0000000000000000   F   F   F
  0.3333299869999991  0.9166700330000026  0.0000000000000000   F   F   F
  0.5833300159999979  0.6666700469999967  0.0000000000000000   F   F   F
  0.8333299499999995  0.6666700469999967  0.0000000000000000   F   F   F
  0.5833299869999991  0.9166700330000026  0.0000000000000000   F   F   F
  0.8333299439999990  0.9166700330000026  0.0000000000000000   F   F   F
  0.1666699969999996  0.0833299999999966  0.1232399980000025   F   F   F
  0.4166699860000023  0.0833299999999966  0.1232399980000025   F   F   F
  0.1666700090000006  0.3333300239999986  0.1232399980000025   F   F   F
  0.4166700190000014  0.3333300239999986  0.1232399980000025   F   F   F
  0.6666699860000023  0.0833299999999966  0.1232399980000025   F   F   F
  0.9166700290000023  0.0833299999999966  0.1232399980000025   F   F   F
  0.6666699980000033  0.3333300239999986  0.1232399980000025   F   F   F
  0.9166700849999998  0.3333300239999986  0.1232399980000025   F   F   F
  0.1666699889999990  0.5833299849999989  0.1232399980000025   F   F   F
  0.4166700000000034  0.5833299849999989  0.1232399980000025   F   F   F
  0.1666700399999996  0.8333300219999984  0.1232399980000025   F   F   F
  0.4166700399999996  0.8333300219999984  0.1232399980000025   F   F   F
  0.6666700219999981  0.5833299849999989  0.1232399980000025   F   F   F
  0.9166700219999981  0.5833299849999989  0.1232399980000025   F   F   F
  0.6666700399999996  0.8333300219999984  0.1232399980000025   F   F   F
  0.9166700840000033  0.8333300219999984  0.1232399980000025   F   F   F
  0.0833109955052656  0.1667041338321999  0.2453477998684129   T   T   T
  0.3334456437577590  0.1667403172712066  0.2453738277489431   T   T   T
  0.0833143362520886  0.4165736987143024  0.2453479687795172   T   T   T
  0.3333387460447167  0.4166504629785232  0.2454229649668474   T   T   T
  0.5833417087716368  0.1667415733045617  0.2453704215792861   T   T   T
  0.8334410016053723  0.1667004227464035  0.2453477128238244   T   T   T
  0.5833596699016814  0.4166629962107076  0.2453956611034079   T   T   T
  0.8333533445641258  0.4166574781736740  0.2454261802075942   T   T   T
  0.0832754989371469  0.6666737600414232  0.2453699280147200   T   T   T
  0.3334538081445831  0.6666790276322958  0.2453681912175428   T   T   T
  0.0832761661356212  0.9165703510642319  0.2453719869477637   T   T   T
  0.3333575252081993  0.9166564994128568  0.2453628639178496   T   T   T
  0.5833580632558087  0.6666488057450267  0.2453938882088548   T   T   T
  0.8333583953324639  0.6666630471206272  0.2453961624824889   T   T   T
  0.5833339171120865  0.9165632017566329  0.2453677859269359   T   T   T
  0.8333586657140832  0.9166664019795184  0.2454245325244083   T   T   T
  0.1665956751651739  0.0834519054653467  0.3641017976759181   T   T   T
  0.4167605889340008  0.0834390704025354  0.3641530529436178   T   T   T
  0.1669689557537873  0.3334582534048062  0.3641736549927235   T   T   T
  0.4167244357473061  0.3332362796016446  0.3642394088416468   T   T   T
  0.6669322198618487  0.0834320149097596  0.3640994384358991   T   T   T
  0.9165694073867610  0.0830535515280097  0.3641715210672041   T   T   T
  0.6666089547568406  0.3332381675666457  0.3642454425689319   T   T   T
  0.9165717374266928  0.3334514457212630  0.3641714275966582   T   T   T
  0.1665979261811787  0.5830917196585444  0.3641008065844190   T   T   T
  0.4167223699267242  0.5834230647353440  0.3642415317555255   T   T   T
  0.1665826917092397  0.8332655393829326  0.3641520454410063   T   T   T
  0.4167694869798083  0.8332542903596674  0.3641540506778038   T   T   T
  0.6667291969064271  0.5833300703097345  0.3642964423460946   T   T   T
  0.9167897586522900  0.5834167805181720  0.3642434003820033   T   T   T
  0.6665986760142315  0.8333000104690368  0.3642393593176166   T   T   T
  0.9168023525002633  0.8333140214837603  0.3642434525514698   T   T   T
 
  0.00000000E+00  0.00000000E+00  0.00000000E+00
  0.00000000E+00  0.00000000E+00  0.00000000E+00
  0.00000000E+00  0.00000000E+00  0.00000000E+00
  0.00000000E+00  0.00000000E+00  0.00000000E+00
  0.00000000E+00  0.00000000E+00  0.00000000E+00
  0.00000000E+00  0.00000000E+00  0.00000000E+00
  0.00000000E+00  0.00000000E+00  0.00000000E+00
  0.00000000E+00  0.00000000E+00  0.00000000E+00
  0.00000000E+00  0.00000000E+00  0.00000000E+00
  0.00000000E+00  0.00000000E+00  0.00000000E+00
  0.00000000E+00  0.00000000E+00  0.00000000E+00
  0.00000000E+00  0.00000000E+00  0.00000000E+00
  0.00000000E+00  0.00000000E+00  0.00000000E+00
  0.00000000E+00  0.00000000E+00  0.00000000E+00
  0.00000000E+00  0.00000000E+00  0.00000000E+00
  0.00000000E+00  0.00000000E+00  0.00000000E+00
  0.00000000E+00  0.00000000E+00  0.00000000E+00
  0.00000000E+00  0.00000000E+00  0.00000000E+00
  0.00000000E+00  0.00000000E+00  0.00000000E+00
  0.00000000E+00  0.00000000E+00  0.00000000E+00
  0.00000000E+00  0.00000000E+00  0.00000000E+00
  0.00000000E+00  0.00000000E+00  0.00000000E+00
  0.00000000E+00  0.00000000E+00  0.00000000E+00
  0.00000000E+00  0.00000000E+00  0.00000000E+00
  0.00000000E+00  0.00000000E+00  0.00000000E+00
  0.00000000E+00  0.00000000E+00  0.00000000E+00
  0.00000000E+00  0.00000000E+00  0.00000000E+00
  0.00000000E+00  0.00000000E+00  0.00000000E+00
  0.00000000E+00  0.00000000E+00  0.00000000E+00
  0.00000000E+00  0.00000000E+00  0.00000000E+00
  0.00000000E+00  0.00000000E+00  0.00000000E+00
  0.00000000E+00  0.00000000E+00  0.00000000E+00
  0.00000000E+00  0.00000000E+00  0.00000000E+00
  0.00000000E+00  0.00000000E+00  0.00000000E+00
  0.00000000E+00  0.00000000E+00  0.00000000E+00
  0.00000000E+00  0.00000000E+00  0.00000000E+00
  0.00000000E+00  0.00000000E+00  0.00000000E+00
  0.00000000E+00  0.00000000E+00  0.00000000E+00
  0.00000000E+00  0.00000000E+00  0.00000000E+00
  0.00000000E+00  0.00000000E+00  0.00000000E+00
  0.00000000E+00  0.00000000E+00  0.00000000E+00
  0.00000000E+00  0.00000000E+00  0.00000000E+00
  0.00000000E+00  0.00000000E+00  0.00000000E+00
  0.00000000E+00  0.00000000E+00  0.00000000E+00
  0.00000000E+00  0.00000000E+00  0.00000000E+00
  0.00000000E+00  0.00000000E+00  0.00000000E+00
  0.00000000E+00  0.00000000E+00  0.00000000E+00
  0.00000000E+00  0.00000000E+00  0.00000000E+00
  0.00000000E+00  0.00000000E+00  0.00000000E+00
  0.00000000E+00  0.00000000E+00  0.00000000E+00
  0.00000000E+00  0.00000000E+00  0.00000000E+00
  0.00000000E+00  0.00000000E+00  0.00000000E+00
  0.00000000E+00  0.00000000E+00  0.00000000E+00
  0.00000000E+00  0.00000000E+00  0.00000000E+00
  0.00000000E+00  0.00000000E+00  0.00000000E+00
  0.00000000E+00  0.00000000E+00  0.00000000E+00
  0.00000000E+00  0.00000000E+00  0.00000000E+00
  0.00000000E+00  0.00000000E+00  0.00000000E+00
  0.00000000E+00  0.00000000E+00  0.00000000E+00
  0.00000000E+00  0.00000000E+00  0.00000000E+00
  0.00000000E+00  0.00000000E+00  0.00000000E+00
  0.00000000E+00  0.00000000E+00  0.00000000E+00
  0.00000000E+00  0.00000000E+00  0.00000000E+00
  0.00000000E+00  0.00000000E+00  0.00000000E+00
