Ru  N  H                                
   1.00000000000000     
    10.9034004211000006    0.0000000000000000    0.0000000000000000
    -5.4517002106000003    9.4426217522999991    0.0000000000000000
     0.0000000000000000    0.0000000000000000   17.4528999328999994
   Ru   N    H 
    64     1     3
Selective dynamics
Direct
  0.0833300030037520  0.1666699989986000  0.0000000000000000   F   F   F
  0.3333299920003014  0.1666699989986000  0.0000000000000000   F   F   F
  0.0833299980008277  0.4166700100045446  0.0000000000000000   F   F   F
  0.3333299980031228  0.4166700100045446  0.0000000000000000   F   F   F
  0.5833300139957345  0.1666699989986000  0.0000000000000000   F   F   F
  0.8333299259979583  0.1666699989986000  0.0000000000000000   F   F   F
  0.5833299760031068  0.4166700100045446  0.0000000000000000   F   F   F
  0.8333299760053947  0.4166700100045446  0.0000000000000000   F   F   F
  0.0833300159982286  0.6666700469990374  0.0000000000000000   F   F   F
  0.3333300160005237  0.6666700469990374  0.0000000000000000   F   F   F
  0.0833299870016546  0.9166700330013384  0.0000000000000000   F   F   F
  0.3333299870039497  0.9166700330013384  0.0000000000000000   F   F   F
  0.5833300160028188  0.6666700469990374  0.0000000000000000   F   F   F
  0.8333299499981806  0.6666700469990374  0.0000000000000000   F   F   F
  0.5833299869970716  0.9166700330013384  0.0000000000000000   F   F   F
  0.8333299440036015  0.9166700330013384  0.0000000000000000   F   F   F
  0.1666699969966743  0.0833299999979715  0.1232399979985814   F   F   F
  0.4166699860023968  0.0833299999979715  0.1232399979985814   F   F   F
  0.1666700090013649  0.3333300239981938  0.1232399979985814   F   F   F
  0.4166700190005415  0.3333300239981938  0.1232399979985814   F   F   F
  0.6666699859955187  0.0833299999979715  0.1232399979985814   F   F   F
  0.9166700290027379  0.0833299999979715  0.1232399979985814   F   F   F
  0.6666699980002093  0.3333300239981938  0.1232399979985814   F   F   F
  0.9166700850028846  0.3333300239981938  0.1232399979985814   F   F   F
  0.1666699890008445  0.5833299849968441  0.1232399979985814   F   F   F
  0.4166699999997121  0.5833299849968441  0.1232399979985814   F   F   F
  0.1666700400024226  0.8333300220019240  0.1232399979985814   F   F   F
  0.4166700400047176  0.8333300220019240  0.1232399979985814   F   F   F
  0.6666700219951380  0.5833299849968441  0.1232399979985814   F   F   F
  0.9166700219974331  0.5833299849968441  0.1232399979985814   F   F   F
  0.6666700399978396  0.8333300220019240  0.1232399979985814   F   F   F
  0.9166700840047497  0.8333300220019240  0.1232399979985814   F   F   F
  0.0834666841587506  0.1667416303333837  0.2454045908454532   F   F   F
  0.3329391262075134  0.1659467869734712  0.2455605938885270   F   F   F
  0.0834586449870756  0.4166920220373740  0.2453905279446786   F   F   F
  0.3332356641220784  0.4170650775501770  0.2453496079999837   F   F   F
  0.5834176315475332  0.1668760163157188  0.2455096612353103   F   F   F
  0.8334361135351287  0.1668501136049656  0.2453775184447764   F   F   F
  0.5838499285760506  0.4168746614086487  0.2455994301565738   F   F   F
  0.8332025400763854  0.4167579310419214  0.2452114957659575   F   F   F
  0.0830524327360607  0.6662446337393177  0.2457174729579421   F   F   F
  0.3329060285452599  0.6662711923272369  0.2454105389114147   F   F   F
  0.0831421492416666  0.9168003248664860  0.2455306387462883   F   F   F
  0.3335615700794961  0.9168217121787521  0.2452572368693353   F   F   F
  0.5830622893482271  0.6662995228065256  0.2454462499567072   F   F   F
  0.8336622009906733  0.6664504676857561  0.2453767828993918   F   F   F
  0.5832822652416283  0.9163579442322103  0.2455852038445627   F   F   F
  0.8331760314198462  0.9162511825799484  0.2453010808094760   F   F   F
  0.1650400365497120  0.0824402530370207  0.3632528923035991   F   F   F
  0.4169872255325799  0.0839905348595238  0.3634327779120596   F   F   F
  0.1668257872805015  0.3332269511484256  0.3633991082057051   F   F   F
  0.4142393971400580  0.3288894926231904  0.3629283687852691   F   F   F
  0.6677744138755699  0.0840449786817032  0.3633853186515523   F   F   F
  0.9159485834616916  0.0823285900072008  0.3635756129933725   F   F   F
  0.6663670608854133  0.3292008208722450  0.3633980749695453   F   F   F
  0.9159702261012654  0.3338707034608746  0.3637368113314636   F   F   F
  0.1645226602596068  0.5825061508316267  0.3632362284811208   F   F   F
  0.4173605894722741  0.5850470322561918  0.3647690969615525   F   F   F
  0.1654345283751510  0.8326313639838929  0.3635087476634595   F   F   F
  0.4169450314649694  0.8332408812857039  0.3632404600083134   F   F   F
  0.6635044211449994  0.5825396246926573  0.3666225796790670   F   F   F
  0.9190646268341212  0.5844813709215089  0.3643059729006310   F   F   F
  0.6667328995385731  0.8385928265363845  0.3629404596339540   F   F   F
  0.9198604503494394  0.8351049677578786  0.3641364018408808   F   F   F
  0.6083151964721623  0.5746955895788588  0.4807410480019385   T   T   T
  0.6223922792453607  0.6594911519459643  0.5123497190755657   T   T   T
  0.5885136772942516  0.4907353001885539  0.5149139827470961   T   T   T
  0.7600103017913611  0.6341907201764555  0.4504740764187867   T   T   T
 
  0.00000000E+00  0.00000000E+00  0.00000000E+00
  0.00000000E+00  0.00000000E+00  0.00000000E+00
  0.00000000E+00  0.00000000E+00  0.00000000E+00
  0.00000000E+00  0.00000000E+00  0.00000000E+00
  0.00000000E+00  0.00000000E+00  0.00000000E+00
  0.00000000E+00  0.00000000E+00  0.00000000E+00
  0.00000000E+00  0.00000000E+00  0.00000000E+00
  0.00000000E+00  0.00000000E+00  0.00000000E+00
  0.00000000E+00  0.00000000E+00  0.00000000E+00
  0.00000000E+00  0.00000000E+00  0.00000000E+00
  0.00000000E+00  0.00000000E+00  0.00000000E+00
  0.00000000E+00  0.00000000E+00  0.00000000E+00
  0.00000000E+00  0.00000000E+00  0.00000000E+00
  0.00000000E+00  0.00000000E+00  0.00000000E+00
  0.00000000E+00  0.00000000E+00  0.00000000E+00
  0.00000000E+00  0.00000000E+00  0.00000000E+00
  0.00000000E+00  0.00000000E+00  0.00000000E+00
  0.00000000E+00  0.00000000E+00  0.00000000E+00
  0.00000000E+00  0.00000000E+00  0.00000000E+00
  0.00000000E+00  0.00000000E+00  0.00000000E+00
  0.00000000E+00  0.00000000E+00  0.00000000E+00
  0.00000000E+00  0.00000000E+00  0.00000000E+00
  0.00000000E+00  0.00000000E+00  0.00000000E+00
  0.00000000E+00  0.00000000E+00  0.00000000E+00
  0.00000000E+00  0.00000000E+00  0.00000000E+00
  0.00000000E+00  0.00000000E+00  0.00000000E+00
  0.00000000E+00  0.00000000E+00  0.00000000E+00
  0.00000000E+00  0.00000000E+00  0.00000000E+00
  0.00000000E+00  0.00000000E+00  0.00000000E+00
  0.00000000E+00  0.00000000E+00  0.00000000E+00
  0.00000000E+00  0.00000000E+00  0.00000000E+00
  0.00000000E+00  0.00000000E+00  0.00000000E+00
  0.00000000E+00  0.00000000E+00  0.00000000E+00
  0.00000000E+00  0.00000000E+00  0.00000000E+00
  0.00000000E+00  0.00000000E+00  0.00000000E+00
  0.00000000E+00  0.00000000E+00  0.00000000E+00
  0.00000000E+00  0.00000000E+00  0.00000000E+00
  0.00000000E+00  0.00000000E+00  0.00000000E+00
  0.00000000E+00  0.00000000E+00  0.00000000E+00
  0.00000000E+00  0.00000000E+00  0.00000000E+00
  0.00000000E+00  0.00000000E+00  0.00000000E+00
  0.00000000E+00  0.00000000E+00  0.00000000E+00
  0.00000000E+00  0.00000000E+00  0.00000000E+00
  0.00000000E+00  0.00000000E+00  0.00000000E+00
  0.00000000E+00  0.00000000E+00  0.00000000E+00
  0.00000000E+00  0.00000000E+00  0.00000000E+00
  0.00000000E+00  0.00000000E+00  0.00000000E+00
  0.00000000E+00  0.00000000E+00  0.00000000E+00
  0.00000000E+00  0.00000000E+00  0.00000000E+00
  0.00000000E+00  0.00000000E+00  0.00000000E+00
  0.00000000E+00  0.00000000E+00  0.00000000E+00
  0.00000000E+00  0.00000000E+00  0.00000000E+00
  0.00000000E+00  0.00000000E+00  0.00000000E+00
  0.00000000E+00  0.00000000E+00  0.00000000E+00
  0.00000000E+00  0.00000000E+00  0.00000000E+00
  0.00000000E+00  0.00000000E+00  0.00000000E+00
  0.00000000E+00  0.00000000E+00  0.00000000E+00
  0.00000000E+00  0.00000000E+00  0.00000000E+00
  0.00000000E+00  0.00000000E+00  0.00000000E+00
  0.00000000E+00  0.00000000E+00  0.00000000E+00
  0.00000000E+00  0.00000000E+00  0.00000000E+00
  0.00000000E+00  0.00000000E+00  0.00000000E+00
  0.00000000E+00  0.00000000E+00  0.00000000E+00
  0.00000000E+00  0.00000000E+00  0.00000000E+00
  0.00000000E+00  0.00000000E+00  0.00000000E+00
  0.00000000E+00  0.00000000E+00  0.00000000E+00
  0.00000000E+00  0.00000000E+00  0.00000000E+00
  0.00000000E+00  0.00000000E+00  0.00000000E+00
